# Na Cluster Minimization with Lennard-Jones Potential (Example)

units           metal
boundary        p p p
atom_style      atomic

# Create Atoms
lattice         fcc 4.0   # Example value for Na
region          box block 0 10 0 10 0 10
create_box      1 box
create_atoms    1 random 4 12345 box

mass            1 22.989769   # Atomic mass of Na

# Define Lennard-Jones Potential (This is just an example. You might want to use DeepMD here.)
pair_style      deepmd graph-compress.pb
pair_coeff      * *  # Example values for Na-Na interaction

# Minimization settings
min_style       cg
minimize        1.0e-4 1.0e-6 100 1000

# Output the minimized structure
dump            1 all atom 100 minimized_structure.lammpstrj

thermo          10
thermo_style    custom step pe

