%nprocshared=14
#P B3LYP/6-311+g(d) force

DPGEN

0 2
Na 15.219100 99.046000 1.553560
Na 12.449800 0.035339 1.644360
Na 9.034820 3.024810 1.826630
Na 6.114850 3.868090 1.707050
Na 2.493560 5.741760 0.043504
Na 99.788400 4.118130 99.605400
Na 99.208500 2.317820 2.587220

