Na7 
1.0
1.0000000000000000e+02 0.0000000000000000e+00 0.0000000000000000e+00 
0.0000000000000000e+00 1.0000000000000000e+02 0.0000000000000000e+00 
0.0000000000000000e+00 0.0000000000000000e+00 1.0000000000000000e+02 
Na 
7 
Cartesian
  15.2191000000   99.0460000000    1.5535600000
  12.4498000000    0.0353385000    1.6443600000
   9.0348200000    3.0248100000    1.8266300000
   6.1148500000    3.8680900000    1.7070500000
   2.4935600000    5.7417600000    0.0435036000
  99.7884000000    4.1181300000   99.6054000000
  99.2085000000    2.3178200000    2.5872200000
