%nprocshared=14
#P B3LYP/6-311+g(d) force

DPGEN

0 2
Na 9.056710 0.635885 0.148747
Na 11.487300 2.293460 28.688200
Na 9.903560 5.222650 29.370200
Na 6.990090 4.674620 0.995993
Na 5.056440 2.791410 2.432260
Na 2.392810 1.359410 4.067300
Na 29.422000 1.174530 3.264970

