Na7 
1.0
3.0000000000000000e+01 0.0000000000000000e+00 0.0000000000000000e+00 
0.0000000000000000e+00 3.0000000000000000e+01 0.0000000000000000e+00 
0.0000000000000000e+00 0.0000000000000000e+00 3.0000000000000000e+01 
Na 
7 
Cartesian
   9.0567100000    0.6358850000    0.1487470000
  11.4873000000    2.2934600000   28.6882000000
   9.9035600000    5.2226500000   29.3702000000
   6.9900900000    4.6746200000    0.9959930000
   5.0564400000    2.7914100000    2.4322600000
   2.3928100000    1.3594100000    4.0673000000
  29.4220000000    1.1745300000    3.2649700000
