%nprocshared=14
#P B3LYP/6-311+g(d) force

DPGEN

0 2
Na 10.359600 1.577990 98.720000
Na 10.643400 3.387530 1.138450
Na 8.806580 0.558396 4.250640
Na 5.940780 1.424600 5.451360
Na 4.713620 2.540730 2.859320
Na 2.120550 3.697850 99.567000
Na 1.724480 4.964870 96.981000

