Na7 
1.0
1.0000000000000000e+02 0.0000000000000000e+00 0.0000000000000000e+00 
0.0000000000000000e+00 1.0000000000000000e+02 0.0000000000000000e+00 
0.0000000000000000e+00 0.0000000000000000e+00 1.0000000000000000e+02 
Na 
7 
Cartesian
  10.3596000000    1.5779900000   98.7200000000
  10.6434000000    3.3875300000    1.1384500000
   8.8065800000    0.5583960000    4.2506400000
   5.9407800000    1.4246000000    5.4513600000
   4.7136200000    2.5407300000    2.8593200000
   2.1205500000    3.6978500000   99.5670000000
   1.7244800000    4.9648700000   96.9810000000
