%nprocshared=14
#P B3LYP/6-311+g(d) force

DPGEN

0 2
Na 14.644600 98.238500 1.733200
Na 12.574100 0.589420 1.607320
Na 9.017800 3.139010 1.686530
Na 6.591920 4.982290 1.125950
Na 2.821710 6.182630 0.574345
Na 99.795000 3.701320 0.090163
Na 98.863900 1.318830 2.150180

