Na7 
1.0
1.0000000000000000e+02 0.0000000000000000e+00 0.0000000000000000e+00 
0.0000000000000000e+00 1.0000000000000000e+02 0.0000000000000000e+00 
0.0000000000000000e+00 0.0000000000000000e+00 1.0000000000000000e+02 
Na 
7 
Cartesian
  14.6446000000   98.2385000000    1.7332000000
  12.5741000000    0.5894200000    1.6073200000
   9.0178000000    3.1390100000    1.6865300000
   6.5919200000    4.9822900000    1.1259500000
   2.8217100000    6.1826300000    0.5743450000
  99.7950000000    3.7013200000    0.0901626000
  98.8639000000    1.3188300000    2.1501800000
