%nprocshared=14
#P B3LYP/6-311+g(d) force

DPGEN

0 2
Na 15.303300 99.421400 1.477100
Na 12.281600 0.061374 1.688420
Na 8.908980 2.759190 1.850980
Na 6.041550 3.571550 1.793560
Na 3.090490 5.578860 99.967004
Na 99.439200 4.052590 99.611900
Na 99.243800 2.707010 2.578720

