Na7 
1.0
1.0000000000000000e+02 0.0000000000000000e+00 0.0000000000000000e+00 
0.0000000000000000e+00 1.0000000000000000e+02 0.0000000000000000e+00 
0.0000000000000000e+00 0.0000000000000000e+00 1.0000000000000000e+02 
Na 
7 
Cartesian
  15.3033000000   99.4214000000    1.4771000000
  12.2816000000    0.0613742000    1.6884200000
   8.9089800000    2.7591900000    1.8509800000
   6.0415500000    3.5715500000    1.7935600000
   3.0904900000    5.5788600000   99.9670042000
  99.4392000000    4.0525900000   99.6119000000
  99.2438000000    2.7070100000    2.5787200000
