%mem=14GB
%chk=checkpoint.chk
%nprocshared=16
#P B3LYP/6-311+g(d) force ! ASE formatted method and basis

Gaussian input prepared by ASE

0 2
Na                2.9507127720        2.5711637203        0.0000000000
Na                3.1806700930        0.3400816629        2.0002419398
Na                5.6077216665        1.2763355707        0.5094215908
Na                4.3595475581        3.0326682297        2.5973532250
Na                1.8596277749        4.5638021215        1.9532088532
Na                0.0000000000        2.6869325124        0.5361331884
Na                0.1978289451        0.0000000000        1.8662826035


