%mem=14GB
%chk=checkpoint.chk
%nprocshared=16
#P B3LYP/6-311+g(d) force ! ASE formatted method and basis

Gaussian input prepared by ASE

0 2
Na                3.0090041147        2.6213279886        0.0492467103
Na                0.0000000000        2.7320731553        0.0000000000
Na                5.9985623666        2.6246728766        0.0368568625
Na                4.5362038722        2.5032884269        2.6371979357
Na                2.1540764813        0.0000000000        1.2568893240
Na                1.5253188979        2.6201853017        2.5935940149
Na                2.3459322520        5.2427062502        1.3745167306


