%mem=14GB
%chk=checkpoint.chk
%nprocshared=16
#P B3LYP/6-311+g(d) force ! ASE formatted method and basis

Gaussian input prepared by ASE

0 2
Na                2.9174351583        2.9689955614        2.8200159439
Na                2.1110736969        2.3808239949        0.0000000000
Na                0.0121367742        2.9067472118        2.0753389907
Na                0.0000000000        0.0000000000        2.8253236514
Na                2.8387619010        0.1305666116        1.8443974185
Na                5.8328276279        0.1091900696        1.6464568917
Na                5.9148408831        2.9224972336        2.6821038832


