%mem=14GB
%chk=checkpoint.chk
%nprocshared=16
#P B3LYP/6-311+g(d) force ! ASE formatted method and basis

Gaussian input prepared by ASE

0 2
Na                2.8528162024        2.6760123468        1.2740010025
Na                3.4745463092        0.1530581980        2.7770972082
Na                5.6623805475        3.5979884949        1.8053064191
Na                5.1687660105        0.9727722101        0.4377508182
Na                2.3658141214        0.0000000000        0.0000000000
Na                0.6250857278        0.9351571092        2.2604030197
Na                0.0000000000        3.5294892909        0.8884415643


