%mem=14GB
%chk=checkpoint.chk
%nprocshared=16
#P B3LYP/6-311+g(d) force ! ASE formatted method and basis

Gaussian input prepared by ASE

0 2
Na                5.5521222215        0.0000000000        2.1981867518
Na                8.1410831740        1.4730506136        2.5218597468
Na                6.5591304139        1.7766958133        0.0000000000
Na                5.5502475544        2.9806428880        2.5543398712
Na                2.6045771272        3.0468884758        1.9664283258
Na                2.5554847441        0.0416723061        1.9601480890
Na                0.0000000000        1.5851645657        1.6953297323


