%mem=14GB
%chk=checkpoint.chk
%nprocshared=16
#P B3LYP/6-311+g(d) force ! ASE formatted method and basis

Gaussian input prepared by ASE

0 2
Na                5.5983852036        2.5579090917        0.9001502418
Na                7.8669363790        3.0513683082        2.8039524111
Na                8.4313455132        2.1448199673        0.0000000000
Na                7.1910380010        0.2531403885        1.9665655622
Na                4.2195902118        0.0000000000        1.6386712167
Na                2.8112056892        2.6238891439        2.0117124954
Na                0.0000000000        2.0836320132        1.1075609733


