%mem=14GB
%chk=checkpoint.chk
%nprocshared=16
#P B3LYP/6-311+g(d) force ! ASE formatted method and basis

Gaussian input prepared by ASE

0 2
Na                2.2000997608        1.6689351255        3.4260559815
Na                2.7420881480        0.0000000000        1.2412479163
Na                0.0067693792        0.5633805971        1.9942910937
Na                0.0000000000        3.3957420446        1.4304447485
Na                2.7331496851        3.9674021851        2.1858872411
Na                2.1990966965        2.2966967640        0.0000000000
Na                4.5958558943        1.9879619229        1.7118992342


