%mem=14GB
%chk=checkpoint.chk
%nprocshared=16
#P B3LYP/6-311+g(d) force ! ASE formatted method and basis

Gaussian input prepared by ASE

0 2
Na                4.3643513178        1.4387272249        0.0000000000
Na                2.1879354683        0.0000000000        1.0654663023
Na                4.9304262110        0.2850179040        2.5064044393
Na                4.9340192386        3.3672856872        1.9465272497
Na                2.1448362849        3.0785916217        0.4762996092
Na                2.6252710228        2.2938871150        3.1311428136
Na                0.0000000000        1.7358755590        1.9538157880


