%mem=14GB
%chk=checkpoint.chk
%nprocshared=16
#P B3LYP/6-311+g(d) force ! ASE formatted method and basis

Gaussian input prepared by ASE

0 2
Na                1.8830277354        1.9958896842        3.6354207082
Na                1.9196804083        2.0103080354        0.0000000000
Na                4.3677121315        1.9985329254        1.8014167705
Na                2.5214885954        4.0037809485        1.8460796209
Na                2.5140722772        0.0000000000        1.8183209390
Na                0.0046752254        3.2832874548        1.7827192560
Na                0.0000000000        0.7272798780        1.8056340266


