%mem=14GB
%chk=checkpoint.chk
%nprocshared=16
#P B3LYP/6-311+g(d) force ! ASE formatted method and basis

Gaussian input prepared by ASE

0 2
Na                2.9674605758        0.0000000000        0.0842440535
Na                7.2610638690        0.7750427371        1.9156955245
Na                8.9922962735        3.0293169152        0.9569171757
Na                6.5045475862        4.5775091568        0.3011167431
Na                4.7907699866        2.2039968018        0.9785682293
Na                2.0297359305        2.8428924817        0.0000000000
Na                0.0000000000        3.5566075047        2.0893320707


