%mem=14GB
%chk=checkpoint.chk
%nprocshared=16
#P B3LYP/6-311+g(d) force ! ASE formatted method and basis

Gaussian input prepared by ASE

0 2
Na                5.4938814590        3.6825933151        1.6418310633
Na                6.3056400680        1.3096784050        0.0000000000
Na                8.3915305673        2.9600720558        1.3826623701
Na                6.5558564705        1.2108731547        2.9772673805
Na                4.1566448607        0.0000000000        1.6368249095
Na                2.7691310235        2.5859639518        2.2922022845
Na                0.0000000000        2.4760488968        1.1478141011


