%mem=14GB
%chk=checkpoint.chk
%nprocshared=16
#P B3LYP/6-311+g(d) force ! ASE formatted method and basis

Gaussian input prepared by ASE

0 2
Na                2.5952816877        2.7999367672        3.2142614437
Na                4.9462179290        2.9975439892        0.0000000000
Na                4.9445057912        4.5541298062        2.5651844530
Na                5.2751967108        1.5814945293        2.6295585012
Na                2.7706771504        0.0000000000        2.1655746250
Na                2.0455655076        2.2511074294        0.3165148784
Na                0.0000000000        3.6614623383        1.9895209976


