%mem=14GB
%chk=checkpoint.chk
%nprocshared=16
#P B3LYP/6-311+g(d) force ! ASE formatted method and basis

Gaussian input prepared by ASE

0 2
Na                2.9702848334        0.1012442107        0.0000000000
Na                1.5006019393        0.0000000000        2.6157260821
Na                0.0000000000        0.5349539333        0.0790977931
Na                0.0887455870        2.6212117822        2.2317778476
Na                2.2676390162        4.4940362133        1.3578890833
Na                4.4831841344        2.6303219230        0.5656955799
Na                4.4724856682        0.4019420844        2.5731192061


