%mem=14GB
%chk=checkpoint.chk
%nprocshared=16
#P B3LYP/6-311+g(d) force ! ASE formatted method and basis

Gaussian input prepared by ASE

0 2
Na                2.5290182151        2.3729849521        0.4253758138
Na                2.6075630810        0.0000000000        2.2595674835
Na                0.0000000000        0.9040081047        1.0900829506
Na                0.0527096973        3.9005487313        1.1497441974
Na                2.7243394032        4.8111470997        2.1614598471
Na                4.3698747360        2.3758225530        2.7823683059
Na                5.5030641374        2.2967209897        0.0000000000


