%mem=14GB
%chk=checkpoint.chk
%nprocshared=16
#P B3LYP/6-311+g(d) force ! ASE formatted method and basis

Gaussian input prepared by ASE

0 2
Na                1.7801665683        0.3254403095        0.0000000000
Na                4.1915460605        4.1346267717        2.5420299916
Na                6.2759424067        0.0000000000        1.1070696458
Na                4.2093613792        2.0511438887        0.3835469917
Na                2.3702959953        4.4166989863        0.1823533734
Na                0.0000000000        2.6408341719        0.6828516840
Na                0.0039298774        0.1899960973        2.4098933625


