%mem=14GB
%chk=checkpoint.chk
%nprocshared=16
#P B3LYP/6-311+g(d) force ! ASE formatted method and basis

Gaussian input prepared by ASE

0 2
Na                4.3019645590        0.0000000000        2.9493889064
Na                4.5383021099        4.3017938735        0.0173394828
Na                0.0000000000        2.7841749105        1.6916368780
Na                2.9809659740        2.4288355126        1.7744908702
Na                5.0444861450        4.2555698197        2.9646828367
Na                5.8830684681        1.9271608633        1.2696483489
Na                3.8157593188        0.1551042125        0.0000000000


