%mem=14GB
%chk=checkpoint.chk
%nprocshared=16
#P B3LYP/6-311+g(d) force ! ASE formatted method and basis

Gaussian input prepared by ASE

0 2
Na                2.7351804320        2.5730705096        2.7690472651
Na                1.1954479861        4.3750834571        1.2913049541
Na                5.4924252241        2.2041662943        1.8622408753
Na                3.2445036478        2.3944495103        0.0000000000
Na                1.7950623857        0.0000000000        1.3497641185
Na                0.0000000000        1.9834160856        2.9630982790
Na                0.1957277614        2.0071068319        0.1765293528


