%mem=14GB
%chk=checkpoint.chk
%nprocshared=16
#P B3LYP/6-311+g(d) force ! ASE formatted method and basis

Gaussian input prepared by ASE

0 2
Na                0.0000000000        0.0000000000        2.7346300749
Na                6.3389101405        0.1776057753        1.1175435406
Na                6.2583116900        4.7654697375        2.4660879597
Na                5.0744655141        2.0749365841        3.0653940328
Na                2.1624693053        2.0391007498        2.3263430427
Na                1.3114759404        3.7300468953        0.0000000000
Na                0.9883243310        4.7602706926        2.7955000557


