%mem=14GB
%chk=checkpoint.chk
%nprocshared=16
#P B3LYP/6-311+g(d) force ! ASE formatted method and basis

Gaussian input prepared by ASE

0 2
Na                2.8322675974        3.1845520665        2.2122904058
Na                0.9745710110        1.5934191539        3.4578905264
Na                0.0054152532        3.1190947286        0.9650114770
Na                0.0000000000        0.0700253685        0.9651336941
Na                2.8312178879        0.0000000000        2.2114001437
Na                2.5020281228        1.5925725891        0.0000000000
Na                5.0689685402        1.5924089682        1.3237954933


