%nprocshared=14
#P B3LYP/6-311+g(d) force

DPGEN

0 2
Na 12.615300 0.980714 1.134380
Na 10.922600 3.115220 99.681700
Na 8.839080 1.964840 1.910410
Na 5.987070 0.083000 3.780020
Na 3.574060 1.780000 3.181020
Na 0.555346 4.328540 0.920438
Na 1.815550 5.899620 98.359700

