Na7 
1.0
1.0000000000000000e+02 0.0000000000000000e+00 0.0000000000000000e+00 
0.0000000000000000e+00 1.0000000000000000e+02 0.0000000000000000e+00 
0.0000000000000000e+00 0.0000000000000000e+00 1.0000000000000000e+02 
Na 
7 
Cartesian
  12.6153000000    0.9807140000    1.1343800000
  10.9226000000    3.1152200000   99.6817000000
   8.8390800000    1.9648400000    1.9104100000
   5.9870700000    0.0830000000    3.7800200000
   3.5740600000    1.7800000000    3.1810200000
   0.5553460000    4.3285400000    0.9204380000
   1.8155500000    5.8996200000   98.3597000000
