#P B3LYP/6-31G(d) ! ASE formatted method and basis
label(Na5)
Force

Gaussian input prepared by ASE

0 1
Na                0.3333534123        0.3333534123        0.3333534123
Na                0.1454399816        0.3236587714        1.2584303250
Na                1.1958444346        0.4631488547       -0.1116766057
Na               -0.4610937682        0.0099060610       -0.3333221831
Na                0.1164556527        1.1999326136       -0.3167852355


