%nprocshared=14
#P B3LYP/6-311+g(d) force

DPGEN

0 2
Na 12.653300 1.001440 1.191220
Na 10.963700 3.049340 99.702500
Na 8.824370 1.993680 1.844600
Na 6.013650 0.064000 3.711850
Na 3.631630 1.749740 3.218950
Na 0.426083 4.373250 0.904588
Na 1.796240 5.920050 98.393900

