Na7 
1.0
1.0000000000000000e+02 0.0000000000000000e+00 0.0000000000000000e+00 
0.0000000000000000e+00 1.0000000000000000e+02 0.0000000000000000e+00 
0.0000000000000000e+00 0.0000000000000000e+00 1.0000000000000000e+02 
Na 
7 
Cartesian
  12.6533000000    1.0014400000    1.1912200000
  10.9637000000    3.0493400000   99.7025000000
   8.8243700000    1.9936800000    1.8446000000
   6.0136500000    0.0640000000    3.7118500000
   3.6316300000    1.7497400000    3.2189500000
   0.4260830000    4.3732500000    0.9045880000
   1.7962400000    5.9200500000   98.3939000000
