%nprocshared=14
#P B3LYP/6-311+g(d) force

DPGEN

0 2
Na 12.340200 0.800086 0.618837
Na 10.340800 3.524210 99.772500
Na 9.351670 1.783520 2.263610
Na 5.844350 0.419251 4.256810
Na 3.218470 1.303490 3.604050
Na 1.328210 4.427170 0.636573
Na 1.885270 5.894230 97.815300

