Na7 
1.0
1.0000000000000000e+02 0.0000000000000000e+00 0.0000000000000000e+00 
0.0000000000000000e+00 1.0000000000000000e+02 0.0000000000000000e+00 
0.0000000000000000e+00 0.0000000000000000e+00 1.0000000000000000e+02 
Na 
7 
Cartesian
  12.3402000000    0.8000860000    0.6188370000
  10.3408000000    3.5242100000   99.7725000000
   9.3516700000    1.7835200000    2.2636100000
   5.8443500000    0.4192510000    4.2568100000
   3.2184700000    1.3034900000    3.6040500000
   1.3282100000    4.4271700000    0.6365730000
   1.8852700000    5.8942300000   97.8153000000
