%nprocshared=14
#P B3LYP/6-311+g(d) force

DPGEN

0 2
Na 9.767640 29.872200 1.497760
Na 10.493200 2.085570 29.441700
Na 9.132060 5.053110 29.948300
Na 6.639750 5.149080 2.036010
Na 5.563860 1.998200 2.133330
Na 2.653050 2.299960 0.803538
Na 0.059410 1.693790 3.107030

