Na7 
1.0
3.0000000000000000e+01 0.0000000000000000e+00 0.0000000000000000e+00 
0.0000000000000000e+00 3.0000000000000000e+01 0.0000000000000000e+00 
0.0000000000000000e+00 0.0000000000000000e+00 3.0000000000000000e+01 
Na 
7 
Cartesian
   9.7676400000   29.8722000000    1.4977600000
  10.4932000000    2.0855700000   29.4417000000
   9.1320600000    5.0531100000   29.9483000000
   6.6397500000    5.1490800000    2.0360100000
   5.5638600000    1.9982000000    2.1333300000
   2.6530500000    2.2999600000    0.8035380000
   0.0594096000    1.6937900000    3.1070300000
