%nprocshared=14
#P B3LYP/6-311+g(d) force

DPGEN

0 2
Na 12.596200 0.940730 1.086330
Na 10.860200 3.196190 99.655500
Na 8.886610 1.954810 1.956440
Na 5.942090 0.085000 3.865970
Na 3.475860 1.831340 3.126940
Na 0.726697 4.274230 0.934389
Na 1.821350 5.869350 98.342100

