Na7 
1.0
1.0000000000000000e+02 0.0000000000000000e+00 0.0000000000000000e+00 
0.0000000000000000e+00 1.0000000000000000e+02 0.0000000000000000e+00 
0.0000000000000000e+00 0.0000000000000000e+00 1.0000000000000000e+02 
Na 
7 
Cartesian
  12.5962000000    0.9407300000    1.0863300000
  10.8602000000    3.1961900000   99.6555000000
   8.8866100000    1.9548100000    1.9564400000
   5.9420900000    0.0850000000    3.8659700000
   3.4758600000    1.8313400000    3.1269400000
   0.7266970000    4.2742300000    0.9343890000
   1.8213500000    5.8693500000   98.3421000000
