%NProcShared=16
%mem=12GB
%Chk=checkpoint.chk
#p B3LYP/6-311+g(d) force

Test

0 1
Na    0.0    0.0    0.0
Na    0.0    0.0    2.6659695897584936
Na    0.0    0.0    6.757317593230086
Na    0.0    0.0    11.938980404112929

--Link1--

%NProcShared=16
%mem=12GB
%Chk=checkpoint.chk
#p B3LYP/6-311+g(d) force

Test

0 1
Na    0.0    0.0    0.0
Na    0.0    0.0    4.4599307252778155
Na    0.0    0.0    9.483418533913191
Na    0.0    0.0    14.909347147613648

--Link1--

%NProcShared=16
%mem=12GB
%Chk=checkpoint.chk
#p B3LYP/6-311+g(d) force

Test

0 1
Na    0.0    0.0    0.0
Na    0.0    0.0    4.123878949804855
Na    0.0    0.0    7.386334107857978
Na    0.0    0.0    11.50072004585341

--Link1--

%NProcShared=16
%mem=12GB
%Chk=checkpoint.chk
#p B3LYP/6-311+g(d) force

Test

0 1
Na    0.0    0.0    0.0
Na    0.0    0.0    3.9126216950972137
Na    0.0    0.0    8.345481141696265
Na    0.0    0.0    12.275859733582195

--Link1--

%NProcShared=16
%mem=12GB
%Chk=checkpoint.chk
#p B3LYP/6-311+g(d) force

Test

0 1
Na    0.0    0.0    0.0
Na    0.0    0.0    3.087181058106001
Na    0.0    0.0    7.1860202247943095
Na    0.0    0.0    12.835485992871767

--Link1--

%NProcShared=16
%mem=12GB
%Chk=checkpoint.chk
#p B3LYP/6-311+g(d) force

Test

0 1
Na    0.0    0.0    0.0
Na    0.0    0.0    2.6611765300222165
Na    0.0    0.0    8.182664917351623
Na    0.0    0.0    13.66247151587104

--Link1--

%NProcShared=16
%mem=12GB
%Chk=checkpoint.chk
#p B3LYP/6-311+g(d) force

Test

0 1
Na    0.0    0.0    0.0
Na    0.0    0.0    5.0614100166079155
Na    0.0    0.0    7.994651572370304
Na    0.0    0.0    13.654999246922145

--Link1--

%NProcShared=16
%mem=12GB
%Chk=checkpoint.chk
#p B3LYP/6-311+g(d) force

Test

0 1
Na    0.0    0.0    0.0
Na    0.0    0.0    5.376451864730287
Na    0.0    0.0    8.493240058281682
Na    0.0    0.0    13.704362285582516

--Link1--

%NProcShared=16
%mem=12GB
%Chk=checkpoint.chk
#p B3LYP/6-311+g(d) force

Test

0 1
Na    0.0    0.0    0.0
Na    0.0    0.0    3.9224506678644886
Na    0.0    0.0    6.289850611911014
Na    0.0    0.0    9.006948969682336

--Link1--

%NProcShared=16
%mem=12GB
%Chk=checkpoint.chk
#p B3LYP/6-311+g(d) force

Test

0 1
Na    0.0    0.0    0.0
Na    0.0    0.0    3.8692759271349746
Na    0.0    0.0    6.668264842431928
Na    0.0    0.0    10.940517294135052

--Link1--

%NProcShared=16
%mem=12GB
%Chk=checkpoint.chk
#p B3LYP/6-311+g(d) force

Test

0 1
Na    0.0    0.0    0.0
Na    0.0    0.0    3.5742060176317603
Na    0.0    0.0    6.355257552758443
Na    0.0    0.0    10.37012359321713

--Link1--

%NProcShared=16
%mem=12GB
%Chk=checkpoint.chk
#p B3LYP/6-311+g(d) force

Test

0 1
Na    0.0    0.0    0.0
Na    0.0    0.0    2.9119094941586745
Na    0.0    0.0    5.3390434737834145
Na    0.0    0.0    10.18925459308187

--Link1--

%NProcShared=16
%mem=12GB
%Chk=checkpoint.chk
#p B3LYP/6-311+g(d) force

Test

0 1
Na    0.0    0.0    0.0
Na    0.0    0.0    3.6764058024010247
Na    0.0    0.0    9.229589627674963
Na    0.0    0.0    12.48622716689146

--Link1--

%NProcShared=16
%mem=12GB
%Chk=checkpoint.chk
#p B3LYP/6-311+g(d) force

Test

0 1
Na    0.0    0.0    0.0
Na    0.0    0.0    2.2183003605473504
Na    0.0    0.0    5.234745675997026
Na    0.0    0.0    10.928816817369512

--Link1--

%NProcShared=16
%mem=12GB
%Chk=checkpoint.chk
#p B3LYP/6-311+g(d) force

Test

0 1
Na    0.0    0.0    0.0
Na    0.0    0.0    5.5735609399311645
Na    0.0    0.0    9.87199859042871
Na    0.0    0.0    12.990027595070902

--Link1--

%NProcShared=16
%mem=12GB
%Chk=checkpoint.chk
#p B3LYP/6-311+g(d) force

Test

0 1
Na    0.0    0.0    0.0
Na    0.0    0.0    2.911466329221131
Na    0.0    0.0    5.476359851308674
Na    0.0    0.0    9.828547601519976

--Link1--

%NProcShared=16
%mem=12GB
%Chk=checkpoint.chk
#p B3LYP/6-311+g(d) force

Test

0 1
Na    0.0    0.0    0.0
Na    0.0    0.0    5.771920657651474
Na    0.0    0.0    8.569966219379474
Na    0.0    0.0    12.551483755837967

--Link1--

%NProcShared=16
%mem=12GB
%Chk=checkpoint.chk
#p B3LYP/6-311+g(d) force

Test

0 1
Na    0.0    0.0    0.0
Na    0.0    0.0    3.902017090771803
Na    0.0    0.0    7.348810449765819
Na    0.0    0.0    12.368410222245526

--Link1--

%NProcShared=16
%mem=12GB
%Chk=checkpoint.chk
#p B3LYP/6-311+g(d) force

Test

0 1
Na    0.0    0.0    0.0
Na    0.0    0.0    4.343608221889037
Na    0.0    0.0    8.187335163623136
Na    0.0    0.0    10.59517137533063

--Link1--

%NProcShared=16
%mem=12GB
%Chk=checkpoint.chk
#p B3LYP/6-311+g(d) force

Test

0 1
Na    0.0    0.0    0.0
Na    0.0    0.0    2.42011644321237
Na    0.0    0.0    6.207816056318489
Na    0.0    0.0    10.20640037562103

--Link1--

%NProcShared=16
%mem=12GB
%Chk=checkpoint.chk
#p B3LYP/6-311+g(d) force

Test

0 1
Na    0.0    0.0    0.0
Na    0.0    0.0    2.416723782465959
Na    0.0    0.0    4.948158729344398
Na    0.0    0.0    9.340882198023607

--Link1--

%NProcShared=16
%mem=12GB
%Chk=checkpoint.chk
#p B3LYP/6-311+g(d) force

Test

0 1
Na    0.0    0.0    0.0
Na    0.0    0.0    3.2670859067725715
Na    0.0    0.0    7.316154878708413
Na    0.0    0.0    12.320649650738627

--Link1--

%NProcShared=16
%mem=12GB
%Chk=checkpoint.chk
#p B3LYP/6-311+g(d) force

Test

0 1
Na    0.0    0.0    0.0
Na    0.0    0.0    4.408890340135512
Na    0.0    0.0    8.410977161565384
Na    0.0    0.0    10.863821717088747

--Link1--

%NProcShared=16
%mem=12GB
%Chk=checkpoint.chk
#p B3LYP/6-311+g(d) force

Test

0 1
Na    0.0    0.0    0.0
Na    0.0    0.0    4.88207827646761
Na    0.0    0.0    7.106418968805288
Na    0.0    0.0    10.157961655910853

--Link1--

%NProcShared=16
%mem=12GB
%Chk=checkpoint.chk
#p B3LYP/6-311+g(d) force

Test

0 1
Na    0.0    0.0    0.0
Na    0.0    0.0    3.5461367357617837
Na    0.0    0.0    8.632526126103127
Na    0.0    0.0    12.130762540743227

--Link1--

%NProcShared=16
%mem=12GB
%Chk=checkpoint.chk
#p B3LYP/6-311+g(d) force

Test

0 1
Na    0.0    0.0    0.0
Na    0.0    0.0    5.4728886770429055
Na    0.0    0.0    8.554406509019278
Na    0.0    0.0    12.336380801373572

--Link1--

%NProcShared=16
%mem=12GB
%Chk=checkpoint.chk
#p B3LYP/6-311+g(d) force

Test

0 1
Na    0.0    0.0    0.0
Na    0.0    0.0    3.2010904171664
Na    0.0    0.0    8.313442639114282
Na    0.0    0.0    11.24801891028735

--Link1--

%NProcShared=16
%mem=12GB
%Chk=checkpoint.chk
#p B3LYP/6-311+g(d) force

Test

0 1
Na    0.0    0.0    0.0
Na    0.0    0.0    4.519349036549594
Na    0.0    0.0    9.05295859063203
Na    0.0    0.0    12.092424690780199

--Link1--

%NProcShared=16
%mem=12GB
%Chk=checkpoint.chk
#p B3LYP/6-311+g(d) force

Test

0 1
Na    0.0    0.0    0.0
Na    0.0    0.0    2.2811739894310334
Na    0.0    0.0    5.168678006481109
Na    0.0    0.0    10.002281137570385

--Link1--

%NProcShared=16
%mem=12GB
%Chk=checkpoint.chk
#p B3LYP/6-311+g(d) force

Test

0 1
Na    0.0    0.0    0.0
Na    0.0    0.0    4.601435247643662
Na    0.0    0.0    7.78417205026218
Na    0.0    0.0    12.867011864394463

--Link1--

%NProcShared=16
%mem=12GB
%Chk=checkpoint.chk
#p B3LYP/6-311+g(d) force

Test

0 1
Na    0.0    0.0    0.0
Na    0.0    0.0    5.223814962339265
Na    0.0    0.0    10.888559039789076
Na    0.0    0.0    14.351321364725106

--Link1--

%NProcShared=16
%mem=12GB
%Chk=checkpoint.chk
#p B3LYP/6-311+g(d) force

Test

0 1
Na    0.0    0.0    0.0
Na    0.0    0.0    3.3773134834737686
Na    0.0    0.0    6.531756247298668
Na    0.0    0.0    12.253765565734454

--Link1--

%NProcShared=16
%mem=12GB
%Chk=checkpoint.chk
#p B3LYP/6-311+g(d) force

Test

0 1
Na    0.0    0.0    0.0
Na    0.0    0.0    4.2913292770283675
Na    0.0    0.0    6.527120093425385
Na    0.0    0.0    11.627987378155328

--Link1--

%NProcShared=16
%mem=12GB
%Chk=checkpoint.chk
#p B3LYP/6-311+g(d) force

Test

0 1
Na    0.0    0.0    0.0
Na    0.0    0.0    2.2283247403110025
Na    0.0    0.0    6.321431453272538
Na    0.0    0.0    11.328259586001206

--Link1--

%NProcShared=16
%mem=12GB
%Chk=checkpoint.chk
#p B3LYP/6-311+g(d) force

Test

0 1
Na    0.0    0.0    0.0
Na    0.0    0.0    5.187309747606491
Na    0.0    0.0    9.360489016391002
Na    0.0    0.0    13.48292058929525

--Link1--

%NProcShared=16
%mem=12GB
%Chk=checkpoint.chk
#p B3LYP/6-311+g(d) force

Test

0 1
Na    0.0    0.0    0.0
Na    0.0    0.0    3.1307198476933156
Na    0.0    0.0    5.902306758538178
Na    0.0    0.0    11.018024142988303

--Link1--

%NProcShared=16
%mem=12GB
%Chk=checkpoint.chk
#p B3LYP/6-311+g(d) force

Test

0 1
Na    0.0    0.0    0.0
Na    0.0    0.0    2.8594894293394306
Na    0.0    0.0    7.237100502568272
Na    0.0    0.0    11.274552507015354

--Link1--

%NProcShared=16
%mem=12GB
%Chk=checkpoint.chk
#p B3LYP/6-311+g(d) force

Test

0 1
Na    0.0    0.0    0.0
Na    0.0    0.0    2.6180235389152173
Na    0.0    0.0    8.102534803736006
Na    0.0    0.0    11.448742126721381

--Link1--

%NProcShared=16
%mem=12GB
%Chk=checkpoint.chk
#p B3LYP/6-311+g(d) force

Test

0 1
Na    0.0    0.0    0.0
Na    0.0    0.0    2.2118847342838923
Na    0.0    0.0    4.520719102118488
Na    0.0    0.0    8.586364773004181

--Link1--

%NProcShared=16
%mem=12GB
%Chk=checkpoint.chk
#p B3LYP/6-311+g(d) force

Test

0 1
Na    0.0    0.0    0.0
Na    0.0    0.0    4.828040573018558
Na    0.0    0.0    7.787487133354982
Na    0.0    0.0    10.357010589314779

--Link1--

%NProcShared=16
%mem=12GB
%Chk=checkpoint.chk
#p B3LYP/6-311+g(d) force

Test

0 1
Na    0.0    0.0    0.0
Na    0.0    0.0    3.971786396797884
Na    0.0    0.0    7.340571692374836
Na    0.0    0.0    9.713854208217219

--Link1--

%NProcShared=16
%mem=12GB
%Chk=checkpoint.chk
#p B3LYP/6-311+g(d) force

Test

0 1
Na    0.0    0.0    0.0
Na    0.0    0.0    3.182206412956672
Na    0.0    0.0    8.751238145535252
Na    0.0    0.0    14.535294356939318

--Link1--

%NProcShared=16
%mem=12GB
%Chk=checkpoint.chk
#p B3LYP/6-311+g(d) force

Test

0 1
Na    0.0    0.0    0.0
Na    0.0    0.0    4.024036977898018
Na    0.0    0.0    6.3139746405218276
Na    0.0    0.0    10.718023659746052

--Link1--

%NProcShared=16
%mem=12GB
%Chk=checkpoint.chk
#p B3LYP/6-311+g(d) force

Test

0 1
Na    0.0    0.0    0.0
Na    0.0    0.0    3.2992298074297253
Na    0.0    0.0    6.005971518769959
Na    0.0    0.0    8.413192699001744

--Link1--

%NProcShared=16
%mem=12GB
%Chk=checkpoint.chk
#p B3LYP/6-311+g(d) force

Test

0 1
Na    0.0    0.0    0.0
Na    0.0    0.0    4.431597994767545
Na    0.0    0.0    10.088907199877644
Na    0.0    0.0    12.739739477927202

--Link1--

%NProcShared=16
%mem=12GB
%Chk=checkpoint.chk
#p B3LYP/6-311+g(d) force

Test

0 1
Na    0.0    0.0    0.0
Na    0.0    0.0    4.076176991707706
Na    0.0    0.0    9.010094032521454
Na    0.0    0.0    14.001435132265527

--Link1--

%NProcShared=16
%mem=12GB
%Chk=checkpoint.chk
#p B3LYP/6-311+g(d) force

Test

0 1
Na    0.0    0.0    0.0
Na    0.0    0.0    5.717999733982436
Na    0.0    0.0    11.152057523418648
Na    0.0    0.0    14.916565383773534

--Link1--

%NProcShared=16
%mem=12GB
%Chk=checkpoint.chk
#p B3LYP/6-311+g(d) force

Test

0 1
Na    0.0    0.0    0.0
Na    0.0    0.0    3.3390383515772206
Na    0.0    0.0    7.52019100601379
Na    0.0    0.0    13.229716874572176

--Link1--

%NProcShared=16
%mem=12GB
%Chk=checkpoint.chk
#p B3LYP/6-311+g(d) force

Test

0 1
Na    0.0    0.0    0.0
Na    0.0    0.0    3.8396407129198358
Na    0.0    0.0    6.48199969592613
Na    0.0    0.0    9.300796660442995

--Link1--

%NProcShared=16
%mem=12GB
%Chk=checkpoint.chk
#p B3LYP/6-311+g(d) force

Test

0 1
Na    0.0    0.0    0.0
Na    0.0    0.0    5.265379635940807
Na    0.0    0.0    9.630856486522163
Na    0.0    0.0    14.396482141957065

--Link1--

%NProcShared=16
%mem=12GB
%Chk=checkpoint.chk
#p B3LYP/6-311+g(d) force

Test

0 1
Na    0.0    0.0    0.0
Na    0.0    0.0    4.152515566543798
Na    0.0    0.0    8.959870279538814
Na    0.0    0.0    13.059165095616915

--Link1--

%NProcShared=16
%mem=12GB
%Chk=checkpoint.chk
#p B3LYP/6-311+g(d) force

Test

0 1
Na    0.0    0.0    0.0
Na    0.0    0.0    2.3416702093980866
Na    0.0    0.0    6.821197483179479
Na    0.0    0.0    10.968939615183402

--Link1--

%NProcShared=16
%mem=12GB
%Chk=checkpoint.chk
#p B3LYP/6-311+g(d) force

Test

0 1
Na    0.0    0.0    0.0
Na    0.0    0.0    2.3941960641961915
Na    0.0    0.0    7.327911784082131
Na    0.0    0.0    10.139108290666861

--Link1--

%NProcShared=16
%mem=12GB
%Chk=checkpoint.chk
#p B3LYP/6-311+g(d) force

Test

0 1
Na    0.0    0.0    0.0
Na    0.0    0.0    5.507208244587725
Na    0.0    0.0    11.03023667283135
Na    0.0    0.0    14.618730513512041

--Link1--

%NProcShared=16
%mem=12GB
%Chk=checkpoint.chk
#p B3LYP/6-311+g(d) force

Test

0 1
Na    0.0    0.0    0.0
Na    0.0    0.0    3.5164779058835016
Na    0.0    0.0    8.630190409392586
Na    0.0    0.0    14.232429996800285

--Link1--

%NProcShared=16
%mem=12GB
%Chk=checkpoint.chk
#p B3LYP/6-311+g(d) force

Test

0 1
Na    0.0    0.0    0.0
Na    0.0    0.0    4.846421232566212
Na    0.0    0.0    7.114863189263714
Na    0.0    0.0    10.349058279877195

--Link1--

%NProcShared=16
%mem=12GB
%Chk=checkpoint.chk
#p B3LYP/6-311+g(d) force

Test

0 1
Na    0.0    0.0    0.0
Na    0.0    0.0    5.617312796462887
Na    0.0    0.0    11.358711896865472
Na    0.0    0.0    16.114485666977597

--Link1--

%NProcShared=16
%mem=12GB
%Chk=checkpoint.chk
#p B3LYP/6-311+g(d) force

Test

0 1
Na    0.0    0.0    0.0
Na    0.0    0.0    5.5378475607099915
Na    0.0    0.0    10.016669201051922
Na    0.0    0.0    12.443074110759643

--Link1--

%NProcShared=16
%mem=12GB
%Chk=checkpoint.chk
#p B3LYP/6-311+g(d) force

Test

0 1
Na    0.0    0.0    0.0
Na    0.0    0.0    4.92535533557064
Na    0.0    0.0    7.396127594896151
Na    0.0    0.0    12.544997047142129

--Link1--

%NProcShared=16
%mem=12GB
%Chk=checkpoint.chk
#p B3LYP/6-311+g(d) force

Test

0 1
Na    0.0    0.0    0.0
Na    0.0    0.0    3.953021840350128
Na    0.0    0.0    7.184946958852568
Na    0.0    0.0    11.207731486858464

--Link1--

%NProcShared=16
%mem=12GB
%Chk=checkpoint.chk
#p B3LYP/6-311+g(d) force

Test

0 1
Na    0.0    0.0    0.0
Na    0.0    0.0    4.413475829526503
Na    0.0    0.0    9.127312757902558
Na    0.0    0.0    12.266116221997642

--Link1--

%NProcShared=16
%mem=12GB
%Chk=checkpoint.chk
#p B3LYP/6-311+g(d) force

Test

0 1
Na    0.0    0.0    0.0
Na    0.0    0.0    3.4909113186792906
Na    0.0    0.0    9.024566857605802
Na    0.0    0.0    13.344198294519764

--Link1--

%NProcShared=16
%mem=12GB
%Chk=checkpoint.chk
#p B3LYP/6-311+g(d) force

Test

0 1
Na    0.0    0.0    0.0
Na    0.0    0.0    3.626821932806145
Na    0.0    0.0    9.207447686910244
Na    0.0    0.0    13.520259947247997

--Link1--

%NProcShared=16
%mem=12GB
%Chk=checkpoint.chk
#p B3LYP/6-311+g(d) force

Test

0 1
Na    0.0    0.0    0.0
Na    0.0    0.0    3.90519476250772
Na    0.0    0.0    9.150404104083561
Na    0.0    0.0    14.315794375016576

--Link1--

%NProcShared=16
%mem=12GB
%Chk=checkpoint.chk
#p B3LYP/6-311+g(d) force

Test

0 1
Na    0.0    0.0    0.0
Na    0.0    0.0    4.846967890927932
Na    0.0    0.0    9.65954939195964
Na    0.0    0.0    14.127148861984061

--Link1--

%NProcShared=16
%mem=12GB
%Chk=checkpoint.chk
#p B3LYP/6-311+g(d) force

Test

0 1
Na    0.0    0.0    0.0
Na    0.0    0.0    2.4591752146722863
Na    0.0    0.0    6.804313314796558
Na    0.0    0.0    10.816024512914979

--Link1--

%NProcShared=16
%mem=12GB
%Chk=checkpoint.chk
#p B3LYP/6-311+g(d) force

Test

0 1
Na    0.0    0.0    0.0
Na    0.0    0.0    2.416024245461132
Na    0.0    0.0    7.301136672919629
Na    0.0    0.0    9.817865310569806

--Link1--

%NProcShared=16
%mem=12GB
%Chk=checkpoint.chk
#p B3LYP/6-311+g(d) force

Test

0 1
Na    0.0    0.0    0.0
Na    0.0    0.0    3.5890956450448437
Na    0.0    0.0    6.734472825350636
Na    0.0    0.0    10.216494187475789

--Link1--

%NProcShared=16
%mem=12GB
%Chk=checkpoint.chk
#p B3LYP/6-311+g(d) force

Test

0 1
Na    0.0    0.0    0.0
Na    0.0    0.0    3.8374966704708493
Na    0.0    0.0    9.28657622165034
Na    0.0    0.0    13.867237264103522

--Link1--

%NProcShared=16
%mem=12GB
%Chk=checkpoint.chk
#p B3LYP/6-311+g(d) force

Test

0 1
Na    0.0    0.0    0.0
Na    0.0    0.0    2.539643343251589
Na    0.0    0.0    7.381087337721339
Na    0.0    0.0    11.87776951052722

--Link1--

%NProcShared=16
%mem=12GB
%Chk=checkpoint.chk
#p B3LYP/6-311+g(d) force

Test

0 1
Na    0.0    0.0    0.0
Na    0.0    0.0    3.611589267784252
Na    0.0    0.0    6.792229386505471
Na    0.0    0.0    11.970372082414038

--Link1--

%NProcShared=16
%mem=12GB
%Chk=checkpoint.chk
#p B3LYP/6-311+g(d) force

Test

0 1
Na    0.0    0.0    0.0
Na    0.0    0.0    2.993177848841598
Na    0.0    0.0    7.95724745083284
Na    0.0    0.0    12.30596105963274

--Link1--

%NProcShared=16
%mem=12GB
%Chk=checkpoint.chk
#p B3LYP/6-311+g(d) force

Test

0 1
Na    0.0    0.0    0.0
Na    0.0    0.0    3.8087173684299036
Na    0.0    0.0    9.002862244378669
Na    0.0    0.0    12.865757495522395

--Link1--

%NProcShared=16
%mem=12GB
%Chk=checkpoint.chk
#p B3LYP/6-311+g(d) force

Test

0 1
Na    0.0    0.0    0.0
Na    0.0    0.0    4.930851186353236
Na    0.0    0.0    10.713548369894703
Na    0.0    0.0    14.779367946972922

--Link1--

%NProcShared=16
%mem=12GB
%Chk=checkpoint.chk
#p B3LYP/6-311+g(d) force

Test

0 1
Na    0.0    0.0    0.0
Na    0.0    0.0    4.171886880670024
Na    0.0    0.0    7.575976075146832
Na    0.0    0.0    10.889722649414406

--Link1--

%NProcShared=16
%mem=12GB
%Chk=checkpoint.chk
#p B3LYP/6-311+g(d) force

Test

0 1
Na    0.0    0.0    0.0
Na    0.0    0.0    5.716119542819259
Na    0.0    0.0    10.485437074506109
Na    0.0    0.0    13.923763300119944

--Link1--

%NProcShared=16
%mem=12GB
%Chk=checkpoint.chk
#p B3LYP/6-311+g(d) force

Test

0 1
Na    0.0    0.0    0.0
Na    0.0    0.0    4.925855111189719
Na    0.0    0.0    9.773053411021099
Na    0.0    0.0    13.635240679426857

--Link1--

%NProcShared=16
%mem=12GB
%Chk=checkpoint.chk
#p B3LYP/6-311+g(d) force

Test

0 1
Na    0.0    0.0    0.0
Na    0.0    0.0    4.6509061628184885
Na    0.0    0.0    8.505993975427486
Na    0.0    0.0    14.145577811198994

--Link1--

%NProcShared=16
%mem=12GB
%Chk=checkpoint.chk
#p B3LYP/6-311+g(d) force

Test

0 1
Na    0.0    0.0    0.0
Na    0.0    0.0    2.7867816015533506
Na    0.0    0.0    5.9251749749739115
Na    0.0    0.0    11.659927851815784

--Link1--

%NProcShared=16
%mem=12GB
%Chk=checkpoint.chk
#p B3LYP/6-311+g(d) force

Test

0 1
Na    0.0    0.0    0.0
Na    0.0    0.0    4.247833351179745
Na    0.0    0.0    7.391567636948654
Na    0.0    0.0    11.127019509647596

--Link1--

%NProcShared=16
%mem=12GB
%Chk=checkpoint.chk
#p B3LYP/6-311+g(d) force

Test

0 1
Na    0.0    0.0    0.0
Na    0.0    0.0    4.781673162320729
Na    0.0    0.0    10.141925980977398
Na    0.0    0.0    15.941516721637612

--Link1--

%NProcShared=16
%mem=12GB
%Chk=checkpoint.chk
#p B3LYP/6-311+g(d) force

Test

0 1
Na    0.0    0.0    0.0
Na    0.0    0.0    5.096131465928744
Na    0.0    0.0    10.005726255048245
Na    0.0    0.0    14.423002646928555

--Link1--

%NProcShared=16
%mem=12GB
%Chk=checkpoint.chk
#p B3LYP/6-311+g(d) force

Test

0 1
Na    0.0    0.0    0.0
Na    0.0    0.0    2.9880819557266944
Na    0.0    0.0    7.841826877963319
Na    0.0    0.0    11.63149680540647

--Link1--

%NProcShared=16
%mem=12GB
%Chk=checkpoint.chk
#p B3LYP/6-311+g(d) force

Test

0 1
Na    0.0    0.0    0.0
Na    0.0    0.0    4.126052593682196
Na    0.0    0.0    9.127272393820624
Na    0.0    0.0    11.340954286360155

--Link1--

%NProcShared=16
%mem=12GB
%Chk=checkpoint.chk
#p B3LYP/6-311+g(d) force

Test

0 1
Na    0.0    0.0    0.0
Na    0.0    0.0    4.132084487617489
Na    0.0    0.0    9.470199030984347
Na    0.0    0.0    12.788783862368756

--Link1--

%NProcShared=16
%mem=12GB
%Chk=checkpoint.chk
#p B3LYP/6-311+g(d) force

Test

0 1
Na    0.0    0.0    0.0
Na    0.0    0.0    4.918385461775447
Na    0.0    0.0    10.023360549710837
Na    0.0    0.0    14.735714624820517

--Link1--

%NProcShared=16
%mem=12GB
%Chk=checkpoint.chk
#p B3LYP/6-311+g(d) force

Test

0 1
Na    0.0    0.0    0.0
Na    0.0    0.0    2.262997758176593
Na    0.0    0.0    4.809677950479521
Na    0.0    0.0    7.658068779302101

--Link1--

%NProcShared=16
%mem=12GB
%Chk=checkpoint.chk
#p B3LYP/6-311+g(d) force

Test

0 1
Na    0.0    0.0    0.0
Na    0.0    0.0    2.8694615552834146
Na    0.0    0.0    8.073609447787979
Na    0.0    0.0    11.771284514717284

--Link1--

%NProcShared=16
%mem=12GB
%Chk=checkpoint.chk
#p B3LYP/6-311+g(d) force

Test

0 1
Na    0.0    0.0    0.0
Na    0.0    0.0    3.096100943250411
Na    0.0    0.0    7.788159159372781
Na    0.0    0.0    11.294326797614158

--Link1--

%NProcShared=16
%mem=12GB
%Chk=checkpoint.chk
#p B3LYP/6-311+g(d) force

Test

0 1
Na    0.0    0.0    0.0
Na    0.0    0.0    2.9347560574101736
Na    0.0    0.0    5.9758930688510015
Na    0.0    0.0    10.811830442981318

--Link1--

%NProcShared=16
%mem=12GB
%Chk=checkpoint.chk
#p B3LYP/6-311+g(d) force

Test

0 1
Na    0.0    0.0    0.0
Na    0.0    0.0    3.7786691700465345
Na    0.0    0.0    8.685702291678087
Na    0.0    0.0    12.875118665847285

--Link1--

%NProcShared=16
%mem=12GB
%Chk=checkpoint.chk
#p B3LYP/6-311+g(d) force

Test

0 1
Na    0.0    0.0    0.0
Na    0.0    0.0    4.106423621661494
Na    0.0    0.0    6.850336814972367
Na    0.0    0.0    9.205813479755477

--Link1--

%NProcShared=16
%mem=12GB
%Chk=checkpoint.chk
#p B3LYP/6-311+g(d) force

Test

0 1
Na    0.0    0.0    0.0
Na    0.0    0.0    3.952793278341801
Na    0.0    0.0    8.323322894743521
Na    0.0    0.0    11.373184279543683

--Link1--

%NProcShared=16
%mem=12GB
%Chk=checkpoint.chk
#p B3LYP/6-311+g(d) force

Test

0 1
Na    0.0    0.0    0.0
Na    0.0    0.0    2.3198501793487996
Na    0.0    0.0    7.790938258633488
Na    0.0    0.0    10.311003265854808

--Link1--

%NProcShared=16
%mem=12GB
%Chk=checkpoint.chk
#p B3LYP/6-311+g(d) force

Test

0 1
Na    0.0    0.0    0.0
Na    0.0    0.0    4.816600580449124
Na    0.0    0.0    7.604326217590224
Na    0.0    0.0    10.435120516312278

--Link1--

%NProcShared=16
%mem=12GB
%Chk=checkpoint.chk
#p B3LYP/6-311+g(d) force

Test

0 1
Na    0.0    0.0    0.0
Na    0.0    0.0    3.387620623862497
Na    0.0    0.0    8.841718522453263
Na    0.0    0.0    13.91313749854784

--Link1--

%NProcShared=16
%mem=12GB
%Chk=checkpoint.chk
#p B3LYP/6-311+g(d) force

Test

0 1
Na    0.0    0.0    0.0
Na    0.0    0.0    3.6306874847755344
Na    0.0    0.0    8.114632015245867
Na    0.0    0.0    13.180640497945152

--Link1--

%NProcShared=16
%mem=12GB
%Chk=checkpoint.chk
#p B3LYP/6-311+g(d) force

Test

0 1
Na    0.0    0.0    0.0
Na    0.0    0.0    2.8720313607091805
Na    0.0    0.0    6.371184077244847
Na    0.0    0.0    10.353356964802451

--Link1--

%NProcShared=16
%mem=12GB
%Chk=checkpoint.chk
#p B3LYP/6-311+g(d) force

Test

0 1
Na    0.0    0.0    0.0
Na    0.0    0.0    2.531454570694507
Na    0.0    0.0    7.846115182678131
Na    0.0    0.0    12.722558004040131

--Link1--

%NProcShared=16
%mem=12GB
%Chk=checkpoint.chk
#p B3LYP/6-311+g(d) force

Test

0 1
Na    0.0    0.0    0.0
Na    0.0    0.0    4.874293423088119
Na    0.0    0.0    9.070702289197639
Na    0.0    0.0    12.719740299814795

--Link1--

%NProcShared=16
%mem=12GB
%Chk=checkpoint.chk
#p B3LYP/6-311+g(d) force

Test

0 1
Na    0.0    0.0    0.0
Na    0.0    0.0    3.784576124854664
Na    0.0    0.0    8.545886841230715
Na    0.0    0.0    12.227133762617651

--Link1--

%NProcShared=16
%mem=12GB
%Chk=checkpoint.chk
#p B3LYP/6-311+g(d) force

Test

0 1
Na    0.0    0.0    0.0
Na    0.0    0.0    3.3467221137033865
Na    0.0    0.0    7.83206401140708
Na    0.0    0.0    10.182049425333076

--Link1--

%NProcShared=16
%mem=12GB
%Chk=checkpoint.chk
#p B3LYP/6-311+g(d) force

Test

0 1
Na    0.0    0.0    0.0
Na    0.0    0.0    2.798479458049921
Na    0.0    0.0    6.951932933299132
Na    0.0    0.0    9.632654906756109

--Link1--

%NProcShared=16
%mem=12GB
%Chk=checkpoint.chk
#p B3LYP/6-311+g(d) force

Test

0 1
Na    0.0    0.0    0.0
Na    0.0    0.0    4.2300889561074655
Na    0.0    0.0    7.281748449202355
Na    0.0    0.0    10.672837848861203

--Link1--

%NProcShared=16
%mem=12GB
%Chk=checkpoint.chk
#p B3LYP/6-311+g(d) force

Test

0 1
Na    0.0    0.0    0.0
Na    0.0    0.0    5.290142412520513
Na    0.0    0.0    7.69528021042534
Na    0.0    0.0    11.4061443549632

--Link1--

%NProcShared=16
%mem=12GB
%Chk=checkpoint.chk
#p B3LYP/6-311+g(d) force

Test

0 1
Na    0.0    0.0    0.0
Na    0.0    0.0    5.116667607308711
Na    0.0    0.0    8.971553231751017
Na    0.0    0.0    13.591797313682662

--Link1--

%NProcShared=16
%mem=12GB
%Chk=checkpoint.chk
#p B3LYP/6-311+g(d) force

Test

0 1
Na    0.0    0.0    0.0
Na    0.0    0.0    2.974137905277108
Na    0.0    0.0    7.25055523301089
Na    0.0    0.0    12.763020317777531

--Link1--

%NProcShared=16
%mem=12GB
%Chk=checkpoint.chk
#p B3LYP/6-311+g(d) force

Test

0 1
Na    0.0    0.0    0.0
Na    0.0    0.0    2.3435011093854152
Na    0.0    0.0    5.010361034957818
Na    0.0    0.0    9.144369726721852

--Link1--

%NProcShared=16
%mem=12GB
%Chk=checkpoint.chk
#p B3LYP/6-311+g(d) force

Test

0 1
Na    0.0    0.0    0.0
Na    0.0    0.0    4.398628659577435
Na    0.0    0.0    7.064328378152187
Na    0.0    0.0    12.230359459172842

--Link1--

%NProcShared=16
%mem=12GB
%Chk=checkpoint.chk
#p B3LYP/6-311+g(d) force

Test

0 1
Na    0.0    0.0    0.0
Na    0.0    0.0    4.843030985552999
Na    0.0    0.0    7.239329753724178
Na    0.0    0.0    11.550083457872436

--Link1--

%NProcShared=16
%mem=12GB
%Chk=checkpoint.chk
#p B3LYP/6-311+g(d) force

Test

0 1
Na    0.0    0.0    0.0
Na    0.0    0.0    5.471836110288686
Na    0.0    0.0    10.766435072893714
Na    0.0    0.0    14.662529962697405

--Link1--

%NProcShared=16
%mem=12GB
%Chk=checkpoint.chk
#p B3LYP/6-311+g(d) force

Test

0 1
Na    0.0    0.0    0.0
Na    0.0    0.0    5.14630332435274
Na    0.0    0.0    9.689469255547863
Na    0.0    0.0    12.521325927298275

--Link1--

%NProcShared=16
%mem=12GB
%Chk=checkpoint.chk
#p B3LYP/6-311+g(d) force

Test

0 1
Na    0.0    0.0    0.0
Na    0.0    0.0    3.099684705425247
Na    0.0    0.0    5.85006011252582
Na    0.0    0.0    10.344704038405627

--Link1--

%NProcShared=16
%mem=12GB
%Chk=checkpoint.chk
#p B3LYP/6-311+g(d) force

Test

0 1
Na    0.0    0.0    0.0
Na    0.0    0.0    2.7145954237406573
Na    0.0    0.0    7.828535024669733
Na    0.0    0.0    13.138125915283833

--Link1--

%NProcShared=16
%mem=12GB
%Chk=checkpoint.chk
#p B3LYP/6-311+g(d) force

Test

0 1
Na    0.0    0.0    0.0
Na    0.0    0.0    2.6297203824877844
Na    0.0    0.0    6.498444889233381
Na    0.0    0.0    10.034626405446822

--Link1--

%NProcShared=16
%mem=12GB
%Chk=checkpoint.chk
#p B3LYP/6-311+g(d) force

Test

0 1
Na    0.0    0.0    0.0
Na    0.0    0.0    4.730823118765198
Na    0.0    0.0    9.174030895467258
Na    0.0    0.0    14.573702229408397

--Link1--

%NProcShared=16
%mem=12GB
%Chk=checkpoint.chk
#p B3LYP/6-311+g(d) force

Test

0 1
Na    0.0    0.0    0.0
Na    0.0    0.0    5.1478870310214955
Na    0.0    0.0    8.196979585436434
Na    0.0    0.0    13.73835030961764

--Link1--

%NProcShared=16
%mem=12GB
%Chk=checkpoint.chk
#p B3LYP/6-311+g(d) force

Test

0 1
Na    0.0    0.0    0.0
Na    0.0    0.0    2.936380336188699
Na    0.0    0.0    8.614146768081277
Na    0.0    0.0    12.61000829746482

--Link1--

%NProcShared=16
%mem=12GB
%Chk=checkpoint.chk
#p B3LYP/6-311+g(d) force

Test

0 1
Na    0.0    0.0    0.0
Na    0.0    0.0    4.970363411164076
Na    0.0    0.0    8.922604663887657
Na    0.0    0.0    14.077769456725395

--Link1--

%NProcShared=16
%mem=12GB
%Chk=checkpoint.chk
#p B3LYP/6-311+g(d) force

Test

0 1
Na    0.0    0.0    0.0
Na    0.0    0.0    3.144982811400089
Na    0.0    0.0    5.446914524709616
Na    0.0    0.0    9.73207283973936

--Link1--

%NProcShared=16
%mem=12GB
%Chk=checkpoint.chk
#p B3LYP/6-311+g(d) force

Test

0 1
Na    0.0    0.0    0.0
Na    0.0    0.0    3.0651375644438055
Na    0.0    0.0    7.227771877908622
Na    0.0    0.0    11.673404263345734

--Link1--

%NProcShared=16
%mem=12GB
%Chk=checkpoint.chk
#p B3LYP/6-311+g(d) force

Test

0 1
Na    0.0    0.0    0.0
Na    0.0    0.0    2.648897710001078
Na    0.0    0.0    5.848854655521898
Na    0.0    0.0    8.657565760766332

--Link1--

%NProcShared=16
%mem=12GB
%Chk=checkpoint.chk
#p B3LYP/6-311+g(d) force

Test

0 1
Na    0.0    0.0    0.0
Na    0.0    0.0    2.3753623030899726
Na    0.0    0.0    5.92516180000478
Na    0.0    0.0    8.690848838295764

--Link1--

%NProcShared=16
%mem=12GB
%Chk=checkpoint.chk
#p B3LYP/6-311+g(d) force

Test

0 1
Na    0.0    0.0    0.0
Na    0.0    0.0    2.8053065646764757
Na    0.0    0.0    5.085288069131979
Na    0.0    0.0    7.585749727044464

--Link1--

%NProcShared=16
%mem=12GB
%Chk=checkpoint.chk
#p B3LYP/6-311+g(d) force

Test

0 1
Na    0.0    0.0    0.0
Na    0.0    0.0    3.868337039573995
Na    0.0    0.0    9.659510876812117
Na    0.0    0.0    13.826683366968407

--Link1--

%NProcShared=16
%mem=12GB
%Chk=checkpoint.chk
#p B3LYP/6-311+g(d) force

Test

0 1
Na    0.0    0.0    0.0
Na    0.0    0.0    5.764140735904894
Na    0.0    0.0    11.100040627794233
Na    0.0    0.0    16.613481384300627

--Link1--

%NProcShared=16
%mem=12GB
%Chk=checkpoint.chk
#p B3LYP/6-311+g(d) force

Test

0 1
Na    0.0    0.0    0.0
Na    0.0    0.0    4.8196516204214035
Na    0.0    0.0    9.837015968812349
Na    0.0    0.0    12.797946481123347

--Link1--

%NProcShared=16
%mem=12GB
%Chk=checkpoint.chk
#p B3LYP/6-311+g(d) force

Test

0 1
Na    0.0    0.0    0.0
Na    0.0    0.0    3.048078332680215
Na    0.0    0.0    6.987720649715331
Na    0.0    0.0    11.285751110076514

--Link1--

%NProcShared=16
%mem=12GB