%NProcShared=16
%mem=12GB
%Chk=checkpoint.chk
#p B3LYP/6-311+g(d) force

Test

0 1
Na    0.0    0.0    0.0
Na    0.0    0.0    5.779875395574665
Na    0.0    0.0    8.954529855282118
Na    0.0    0.0    11.297528768575155

--Link1--