%NProcShared=16
%mem=12GB
%Chk=checkpoint.chk
#p B3LYP/6-311+g(d) force

Test

0 1
Na    0    0    0
Na    0    0    3.743711711980337
Na    0    0    8.3066449056404
Na    0    0    11.233337551516401
