%NProcShared=16
%mem=12GB
%Chk=checkpoint.chk
#p B3LYP/6-311+g(d) force

Test

0 1
Na    0    0    0
Na    0    0    5.138819075490477
Na    0    0    9.293396587707758
Na    0    0    13.964105587953405

--Link1--