%NProcShared=16
%mem=12GB
%Chk=checkpoint.chk
#p B3LYP/6-311+g(d) force

Test

0 1
Na    0    0    0
Na    0    0    4.508273382732703
Na    0    0    8.788016530091555
Na    0    0    12.549611859801978

--Link1--