%NProcShared=16
%mem=12GB
%Chk=checkpoint.chk
#p B3LYP/6-311+g(d) force

Test

0 1
Na    0    0    0
Na    0    0    2.7349003683063815
Na    0    0    6.661542893147332
Na    0    0    10.046934199309995

--Link1--