%nprocshared=14
#P B3LYP/6-311+g(d) force

DPGEN

0 2
Na 9.623820 0.058000 0.580237
Na 11.133400 2.319770 28.740100
Na 9.559560 5.031140 29.761000
Na 6.656780 5.085660 1.134270
Na 5.726870 2.552060 2.360180
Na 2.511490 1.788960 3.383320
Na 29.097000 1.316390 3.008550

