Na7 
1.0
3.0000000000000000e+01 0.0000000000000000e+00 0.0000000000000000e+00 
0.0000000000000000e+00 3.0000000000000000e+01 0.0000000000000000e+00 
0.0000000000000000e+00 0.0000000000000000e+00 3.0000000000000000e+01 
Na 
7 
Cartesian
   9.6238200000    0.0580000000    0.5802370000
  11.1334000000    2.3197700000   28.7401000000
   9.5595600000    5.0311400000   29.7610000000
   6.6567800000    5.0856600000    1.1342700000
   5.7268700000    2.5520600000    2.3601800000
   2.5114900000    1.7889600000    3.3833200000
  29.0970000000    1.3163900000    3.0085500000
