%nprocshared=14
#P B3LYP/6-311+g(d) force

DPGEN

0 2
Na 12.806400 0.993406 1.326340
Na 11.071600 2.985400 99.656000
Na 8.769700 2.069590 1.738980
Na 6.049550 99.964100 3.623900
Na 3.558980 1.811770 3.203230
Na 0.338884 4.396260 0.903663
Na 1.713940 5.931420 98.515600

