Na7 
1.0
1.0000000000000000e+02 0.0000000000000000e+00 0.0000000000000000e+00 
0.0000000000000000e+00 1.0000000000000000e+02 0.0000000000000000e+00 
0.0000000000000000e+00 0.0000000000000000e+00 1.0000000000000000e+02 
Na 
7 
Cartesian
  12.8064000000    0.9934060000    1.3263400000
  11.0716000000    2.9854000000   99.6560000000
   8.7697000000    2.0695900000    1.7389800000
   6.0495500000   99.9641000000    3.6239000000
   3.5589800000    1.8117700000    3.2032300000
   0.3388840000    4.3962600000    0.9036630000
   1.7139400000    5.9314200000   98.5156000000
