%nprocshared=14
#P B3LYP/6-311+g(d) force

DPGEN

0 2
Na 8.978680 0.209422 2.060880
Na 11.581200 2.067080 0.954970
Na 9.483670 4.479270 0.133669
Na 7.087630 4.888600 2.282940
Na 5.186340 2.279030 1.794560
Na 2.375560 1.669760 0.108676
Na 99.615900 2.558800 1.631990

