Na7 
1.0
1.0000000000000000e+02 0.0000000000000000e+00 0.0000000000000000e+00 
0.0000000000000000e+00 1.0000000000000000e+02 0.0000000000000000e+00 
0.0000000000000000e+00 0.0000000000000000e+00 1.0000000000000000e+02 
Na 
7 
Cartesian
   8.9786800000    0.2094220000    2.0608800000
  11.5812000000    2.0670800000    0.9549700000
   9.4836700000    4.4792700000    0.1336690000
   7.0876300000    4.8886000000    2.2829400000
   5.1863400000    2.2790300000    1.7945600000
   2.3755600000    1.6697600000    0.1086760000
  99.6159000000    2.5588000000    1.6319900000
