%nprocshared=14
#P B3LYP/6-311+g(d) force

DPGEN

0 2
Na 14.913200 98.487000 1.672350
Na 12.599000 0.307181 1.606470
Na 9.014900 3.179230 1.759350
Na 6.350290 4.570820 1.355120
Na 2.506500 6.024140 0.345138
Na 99.854300 3.741630 0.094481
Na 99.070700 1.842000 2.134780

