Na7 
1.0
1.0000000000000000e+02 0.0000000000000000e+00 0.0000000000000000e+00 
0.0000000000000000e+00 1.0000000000000000e+02 0.0000000000000000e+00 
0.0000000000000000e+00 0.0000000000000000e+00 1.0000000000000000e+02 
Na 
7 
Cartesian
  14.9132000000   98.4870000000    1.6723500000
  12.5990000000    0.3071810000    1.6064700000
   9.0149000000    3.1792300000    1.7593500000
   6.3502900000    4.5708200000    1.3551200000
   2.5065000000    6.0241400000    0.3451380000
  99.8543000000    3.7416300000    0.0944809000
  99.0707000000    1.8420000000    2.1347800000
