%nprocshared=14
#P B3LYP/6-311+g(d) force

DPGEN

0 2
Na 10.328400 1.641140 98.697800
Na 10.663200 3.282230 1.157220
Na 8.871970 0.582171 4.275350
Na 5.853700 1.452090 5.476320
Na 4.818970 2.517430 2.864050
Na 2.057730 3.746510 99.599200
Na 1.714990 4.930390 96.897700

