Na7 
1.0
1.0000000000000000e+02 0.0000000000000000e+00 0.0000000000000000e+00 
0.0000000000000000e+00 1.0000000000000000e+02 0.0000000000000000e+00 
0.0000000000000000e+00 0.0000000000000000e+00 1.0000000000000000e+02 
Na 
7 
Cartesian
  10.3284000000    1.6411400000   98.6978000000
  10.6632000000    3.2822300000    1.1572200000
   8.8719700000    0.5821710000    4.2753500000
   5.8537000000    1.4520900000    5.4763200000
   4.8189700000    2.5174300000    2.8640500000
   2.0577300000    3.7465100000   99.5992000000
   1.7149900000    4.9303900000   96.8977000000
