%nprocshared=14
#P B3LYP/6-311+g(d) force

DPGEN

0 2
Na 10.397200 1.518740 98.741100
Na 10.608200 3.468410 1.135900
Na 8.759160 0.552318 4.217330
Na 6.045490 1.387460 5.427740
Na 4.583210 2.572700 2.855140
Na 2.187470 3.638700 99.544700
Na 1.728320 5.013640 97.045800

