Na7 
1.0
1.0000000000000000e+02 0.0000000000000000e+00 0.0000000000000000e+00 
0.0000000000000000e+00 1.0000000000000000e+02 0.0000000000000000e+00 
0.0000000000000000e+00 0.0000000000000000e+00 1.0000000000000000e+02 
Na 
7 
Cartesian
  10.3972000000    1.5187400000   98.7411000000
  10.6082000000    3.4684100000    1.1359000000
   8.7591600000    0.5523180000    4.2173300000
   6.0454900000    1.3874600000    5.4277400000
   4.5832100000    2.5727000000    2.8551400000
   2.1874700000    3.6387000000   99.5447000000
   1.7283200000    5.0136400000   97.0458000000
