%nprocshared=14
#P B3LYP/6-311+g(d) force

DPGEN

0 2
Na 11.462900 1.295410 99.162400
Na 9.822650 3.076410 0.990441
Na 9.582980 1.171300 3.150300
Na 5.772410 1.469520 4.628450
Na 3.193130 2.061550 3.548080
Na 2.686480 3.600650 99.674400
Na 1.788440 5.477120 97.813500

