Na7 
1.0
1.0000000000000000e+02 0.0000000000000000e+00 0.0000000000000000e+00 
0.0000000000000000e+00 1.0000000000000000e+02 0.0000000000000000e+00 
0.0000000000000000e+00 0.0000000000000000e+00 1.0000000000000000e+02 
Na 
7 
Cartesian
  11.4629000000    1.2954100000   99.1624000000
   9.8226500000    3.0764100000    0.9904410000
   9.5829800000    1.1713000000    3.1503000000
   5.7724100000    1.4695200000    4.6284500000
   3.1931300000    2.0615500000    3.5480800000
   2.6864800000    3.6006500000   99.6744000000
   1.7884400000    5.4771200000   97.8135000000
