%nprocshared=14
#P B3LYP/6-311+g(d) force

DPGEN

0 2
Na 9.825970 29.847000 1.454710
Na 10.464400 2.139490 29.408000
Na 9.122430 4.995940 29.983000
Na 6.613000 5.109310 1.962510
Na 5.531160 2.077460 2.118930
Na 2.690950 2.299970 0.950504
Na 0.061080 1.682750 3.090050

