Na7 
1.0
3.0000000000000000e+01 0.0000000000000000e+00 0.0000000000000000e+00 
0.0000000000000000e+00 3.0000000000000000e+01 0.0000000000000000e+00 
0.0000000000000000e+00 0.0000000000000000e+00 3.0000000000000000e+01 
Na 
7 
Cartesian
   9.8259700000   29.8470000000    1.4547100000
  10.4644000000    2.1394900000   29.4080000000
   9.1224300000    4.9959400000   29.9830000000
   6.6130000000    5.1093100000    1.9625100000
   5.5311600000    2.0774600000    2.1189300000
   2.6909500000    2.2999700000    0.9505040000
   0.0610801000    1.6827500000    3.0900500000
