%nprocshared=14
#P B3LYP/6-311+g(d) force

DPGEN

0 2
Na 9.530800 0.110652 1.888190
Na 11.219800 2.135430 0.783293
Na 9.303210 4.429830 0.328150
Na 6.973610 4.474740 2.437760
Na 4.789620 2.688370 1.712360
Na 2.427750 1.916220 29.981400
Na 0.064220 2.396720 1.836530

