Na7 
1.0
3.0000000000000000e+01 0.0000000000000000e+00 0.0000000000000000e+00 
0.0000000000000000e+00 3.0000000000000000e+01 0.0000000000000000e+00 
0.0000000000000000e+00 0.0000000000000000e+00 3.0000000000000000e+01 
Na 
7 
Cartesian
   9.5308000000    0.1106520000    1.8881900000
  11.2198000000    2.1354300000    0.7832930000
   9.3032100000    4.4298300000    0.3281500000
   6.9736100000    4.4747400000    2.4377600000
   4.7896200000    2.6883700000    1.7123600000
   2.4277500000    1.9162200000   29.9813997000
   0.0642202000    2.3967200000    1.8365300000
