%nprocshared=14
#P B3LYP/6-311+g(d) force

DPGEN

0 2
Na 12.715400 1.005430 1.255040
Na 11.008000 3.004820 99.698200
Na 8.808900 2.031350 1.782380
Na 6.035800 0.022000 3.662080
Na 3.624780 1.761950 3.226060
Na 0.353539 4.396390 0.898098
Na 1.762550 5.930490 98.445800

