Na7 
1.0
1.0000000000000000e+02 0.0000000000000000e+00 0.0000000000000000e+00 
0.0000000000000000e+00 1.0000000000000000e+02 0.0000000000000000e+00 
0.0000000000000000e+00 0.0000000000000000e+00 1.0000000000000000e+02 
Na 
7 
Cartesian
  12.7154000000    1.0054300000    1.2550400000
  11.0080000000    3.0048200000   99.6982000000
   8.8089000000    2.0313500000    1.7823800000
   6.0358000000    0.0220000000    3.6620800000
   3.6247800000    1.7619500000    3.2260600000
   0.3535390000    4.3963900000    0.8980980000
   1.7625500000    5.9304900000   98.4458000000
