%nprocshared=14
#P B3LYP/6-311+g(d) force

DPGEN

0 2
Na 9.262430 29.009100 28.540800
Na 9.612360 1.914740 29.366900
Na 9.542760 5.342690 29.373300
Na 7.028100 6.193710 1.189470
Na 5.289240 3.927670 2.296080
Na 3.049040 1.596400 3.261350
Na 0.525066 0.167690 4.939870

