Na7 
1.0
3.0000000000000000e+01 0.0000000000000000e+00 0.0000000000000000e+00 
0.0000000000000000e+00 3.0000000000000000e+01 0.0000000000000000e+00 
0.0000000000000000e+00 0.0000000000000000e+00 3.0000000000000000e+01 
Na 
7 
Cartesian
   9.2624300000   29.0091000000   28.5408000000
   9.6123600000    1.9147400000   29.3669000000
   9.5427600000    5.3426900000   29.3733000000
   7.0281000000    6.1937100000    1.1894700000
   5.2892400000    3.9276700000    2.2960800000
   3.0490400000    1.5964000000    3.2613500000
   0.5250660000    0.1676900000    4.9398700000
