%nprocshared=14
#P B3LYP/6-311+g(d) force

DPGEN

0 2
Na 8.652320 29.775200 29.411500
Na 10.764900 2.247750 29.231300
Na 9.771180 5.630630 29.149800
Na 7.157720 5.240270 1.070510
Na 5.193980 3.209380 2.243390
Na 3.051970 1.382720 3.764230
Na 29.717000 0.665983 4.096910

