Na7 
1.0
3.0000000000000000e+01 0.0000000000000000e+00 0.0000000000000000e+00 
0.0000000000000000e+00 3.0000000000000000e+01 0.0000000000000000e+00 
0.0000000000000000e+00 0.0000000000000000e+00 3.0000000000000000e+01 
Na 
7 
Cartesian
   8.6523200000   29.7752000000   29.4115000000
  10.7649000000    2.2477500000   29.2313000000
   9.7711800000    5.6306300000   29.1498000000
   7.1577200000    5.2402700000    1.0705100000
   5.1939800000    3.2093800000    2.2433900000
   3.0519700000    1.3827200000    3.7642300000
  29.7170000000    0.6659830000    4.0969100000
