%nprocshared=14
#P B3LYP/6-311+g(d) force

DPGEN

0 2
Na 9.230540 0.283775 1.855990
Na 11.159000 2.185530 0.192703
Na 9.168990 4.611210 0.123700
Na 7.107430 4.746820 2.374670
Na 4.801930 2.136980 1.969050
Na 2.409400 2.030540 0.105700
Na 0.431683 2.157100 2.345930

