Na7 
1.0
3.0000000000000000e+01 0.0000000000000000e+00 0.0000000000000000e+00 
0.0000000000000000e+00 3.0000000000000000e+01 0.0000000000000000e+00 
0.0000000000000000e+00 0.0000000000000000e+00 3.0000000000000000e+01 
Na 
7 
Cartesian
   9.2305400000    0.2837750000    1.8559900000
  11.1590000000    2.1855300000    0.1927030000
   9.1689900000    4.6112100000    0.1237000000
   7.1074300000    4.7468200000    2.3746700000
   4.8019300000    2.1369800000    1.9690500000
   2.4094000000    2.0305400000    0.1057000000
   0.4316830000    2.1571000000    2.3459300000
