%nprocshared=14
#P B3LYP/6-311+g(d) force

DPGEN

0 2
Na 11.540600 1.269320 99.169800
Na 9.801600 3.098070 0.935343
Na 9.571290 1.193820 3.177320
Na 5.850480 1.456570 4.568520
Na 3.053660 1.985530 3.587810
Na 2.703140 3.666700 99.690500
Na 1.788250 5.481960 97.838400

