Na7 
1.0
1.0000000000000000e+02 0.0000000000000000e+00 0.0000000000000000e+00 
0.0000000000000000e+00 1.0000000000000000e+02 0.0000000000000000e+00 
0.0000000000000000e+00 0.0000000000000000e+00 1.0000000000000000e+02 
Na 
7 
Cartesian
  11.5406000000    1.2693200000   99.1698000000
   9.8016000000    3.0980700000    0.9353430000
   9.5712900000    1.1938200000    3.1773200000
   5.8504800000    1.4565700000    4.5685200000
   3.0536600000    1.9855300000    3.5878100000
   2.7031400000    3.6667000000   99.6905000000
   1.7882500000    5.4819600000   97.8384000000
