%nprocshared=14
#P B3LYP/6-311+g(d) force

DPGEN

0 2
Na 9.132740 0.132832 2.034690
Na 11.446600 2.172150 0.913970
Na 9.462800 4.405300 0.243554
Na 7.089330 4.751240 2.281990
Na 5.027240 2.426980 1.722050
Na 2.448680 1.732190 0.113512
Na 99.701599 2.531270 1.657920

