Na7 
1.0
1.0000000000000000e+02 0.0000000000000000e+00 0.0000000000000000e+00 
0.0000000000000000e+00 1.0000000000000000e+02 0.0000000000000000e+00 
0.0000000000000000e+00 0.0000000000000000e+00 1.0000000000000000e+02 
Na 
7 
Cartesian
   9.1327400000    0.1328320000    2.0346900000
  11.4466000000    2.1721500000    0.9139700000
   9.4628000000    4.4053000000    0.2435540000
   7.0893300000    4.7512400000    2.2819900000
   5.0272400000    2.4269800000    1.7220500000
   2.4486800000    1.7321900000    0.1135120000
  99.7015990000    2.5312700000    1.6579200000
