%nprocshared=14
#P B3LYP/6-311+g(d) force

DPGEN

0 2
Na 9.412510 29.971500 1.769010
Na 10.671500 2.249230 29.624600
Na 9.122410 4.831860 29.962000
Na 6.706870 4.789960 2.240220
Na 5.452950 2.237800 2.036440
Na 2.431200 2.175640 0.624896
Na 0.511528 1.896020 2.710450

