Na7 
1.0
3.0000000000000000e+01 0.0000000000000000e+00 0.0000000000000000e+00 
0.0000000000000000e+00 3.0000000000000000e+01 0.0000000000000000e+00 
0.0000000000000000e+00 0.0000000000000000e+00 3.0000000000000000e+01 
Na 
7 
Cartesian
   9.4125100000   29.9715000000    1.7690100000
  10.6715000000    2.2492300000   29.6246000000
   9.1224100000    4.8318600000   29.9620000000
   6.7068700000    4.7899600000    2.2402200000
   5.4529500000    2.2378000000    2.0364400000
   2.4312000000    2.1756400000    0.6248960000
   0.5115280000    1.8960200000    2.7104500000
