%mem=14GB
%chk=checkpoint.chk
%nprocshared=16
#P B3LYP/6-311+g(d) force ! ASE formatted method and basis

Gaussian input prepared by ASE

0 2
Na                4.0760359211        2.6388987663        1.0447307952
Na                1.5775024341        0.0324372447        2.7577807999
Na                1.4448560329        3.0188216109        2.4518051035
Na                0.0000000000        1.2382772566        0.5170289336
Na                2.7468406400        0.1515221883        0.0000000000
Na                4.5538142392        0.0000000000        2.3836713902
Na                6.8605140541        1.5475653825        1.2550120344


