%mem=14GB
%chk=checkpoint.chk
%nprocshared=16
#P B3LYP/6-311+g(d) force ! ASE formatted method and basis

Gaussian input prepared by ASE

0 2
Na                2.1742639575        2.2403167791        2.9511332691
Na                5.3861303552        2.1789679302        0.0660169091
Na                3.4364355680        4.3869028784        1.1007144401
Na                4.9186076052        2.7118242941        2.7457634021
Na                3.9920555417        0.0000000000        1.8163511864
Na                2.6640713440        1.6452667446        0.0000000000
Na                0.0000000000        2.1581420938        1.0303234468


