%mem=14GB
%chk=checkpoint.chk
%nprocshared=16
#P B3LYP/6-311+g(d) force ! ASE formatted method and basis

Gaussian input prepared by ASE

0 2
Na                1.8678201305        4.0453785792        1.9158680503
Na                2.7611576966        1.8972549209        3.4353715663
Na                6.9544153847        1.9092368763        1.8951032134
Na                4.3100222300        2.4668068549        0.8711650665
Na                2.5317175654        0.0000000000        1.4144180267
Na                1.4084277566        2.0996632183        0.0000000000
Na                0.0000000000        1.5796762869        2.3193789749


