%mem=14GB
%chk=checkpoint.chk
%nprocshared=16
#P B3LYP/6-311+g(d) force ! ASE formatted method and basis

Gaussian input prepared by ASE

0 2
Na                2.2941829926        2.5557446257        0.0000000000
Na                2.4040739379        2.6630892629        2.6956057565
Na                0.0000000000        1.8279546747        1.4764397890
Na                2.1550995046        0.0000000000        1.4410388571
Na                4.5998291253        3.1989753305        1.1996067529
Na                4.3412555618        0.7701772116        0.0824905749
Na                4.5599634728        1.0337547478        2.7766156933


