%mem=14GB
%chk=checkpoint.chk
%nprocshared=16
#P B3LYP/6-311+g(d) force ! ASE formatted method and basis

Gaussian input prepared by ASE

0 2
Na                2.8203667369        1.0156902805        1.5594709028
Na                2.6813431843        3.5728198807        0.0000000000
Na                0.0000000000        0.0000000000        1.4037544685
Na                0.5277860915        2.8986368222        1.9795440487
Na                3.2727200977        3.6433196624        2.9356150289
Na                5.3232760825        2.5800114885        1.0203997549
Na                7.7075499350        0.9099323172        1.7508114656


