%mem=14GB
%chk=checkpoint.chk
%nprocshared=16
#P B3LYP/6-311+g(d) force ! ASE formatted method and basis

Gaussian input prepared by ASE

0 2
Na                3.5697969256        2.7463070255        0.9941761951
Na                1.9812768253        0.7270971156        0.0000000000
Na                6.3497895657        2.2142751916        1.7234888344
Na                4.4881450827        0.0000000000        1.3176166908
Na                2.4823273546        1.2517716267        3.0391574788
Na                0.9084322865        3.3655735137        1.3290218622
Na                0.0000000000        0.8318382819        1.9154539166


