%mem=14GB
%chk=checkpoint.chk
%nprocshared=16
#P B3LYP/6-311+g(d) force ! ASE formatted method and basis

Gaussian input prepared by ASE

0 2
Na                2.4358168527        0.0000000000        1.1600671765
Na                3.5730855580        2.0456426888        3.0342624218
Na                4.7369426804        1.7233725150        0.2940084249
Na                3.3641106310        4.2848933007        1.0439706926
Na                0.3727899668        4.0447984768        1.1955786304
Na                0.6094581861        1.5988774180        2.9176178830
Na                0.0000000000        1.3160984494        0.0000000000


