%mem=14GB
%chk=checkpoint.chk
%nprocshared=16
#P B3LYP/6-311+g(d) force ! ASE formatted method and basis

Gaussian input prepared by ASE

0 2
Na                3.0373830805        0.0000000000        1.9047812004
Na                4.3098896200        1.9433246065        0.0000000000
Na                6.5752452631        2.1008268029        1.9600942967
Na                4.1669644622        2.0865072307        3.7495598632
Na                2.9542919725        3.9731680575        1.7517809659
Na                0.0000000000        3.5116665118        1.8905844913
Na                0.0889765271        0.5176050336        1.8734974855


