%mem=14GB
%chk=checkpoint.chk
%nprocshared=16
#P B3LYP/6-311+g(d) force ! ASE formatted method and basis

Gaussian input prepared by ASE

0 2
Na                2.9832690311        2.8101159315        1.2301080548
Na                1.2638689797        1.0457173935        2.9315022299
Na                0.0000000000        2.8864826825        0.9289019279
Na                1.5378904774        0.4881523341        0.0000000000
Na                3.8546481943        0.0000000000        1.8367868690
Na                6.6066849606        0.7689565238        0.9088402205
Na                5.8615431672        3.5987514290        1.5867051324


