%mem=14GB
%chk=checkpoint.chk
%nprocshared=16
#P B3LYP/6-311+g(d) force ! ASE formatted method and basis

Gaussian input prepared by ASE

0 2
Na                2.4438605699        2.1098473187        0.0000000000
Na                3.0990743884        0.0000000000        1.8787440292
Na                4.9872741695        2.3785860708        1.4010223010
Na                2.9161169200        4.6436808253        1.3621815255
Na                2.1452227695        2.4665930594        3.1446302988
Na                0.0000000000        3.7024902688        1.5765083971
Na                0.1801324849        0.6640990813        1.1731591382


