%mem=14GB
%chk=checkpoint.chk
%nprocshared=16
#P B3LYP/6-311+g(d) force ! ASE formatted method and basis

Gaussian input prepared by ASE

0 2
Na                2.7546529255        3.6041790921        1.4618907657
Na                0.0000000000        0.1563201933        2.4922808122
Na                2.4865964524        0.0000000000        0.9227808242
Na                0.8982851630        1.9867387298        0.0000000000
Na                0.0104970334        3.0967122404        2.4215391596
Na                2.2488715920        1.6550794739        3.2640404640
Na                4.9846803079        1.4989984468        2.1178235296


