%mem=14GB
%chk=checkpoint.chk
%nprocshared=16
#P B3LYP/6-311+g(d) force ! ASE formatted method and basis

Gaussian input prepared by ASE

0 2
Na                2.1654208014        2.1548106760        0.0000000000
Na                2.7673355910        0.0000000000        2.0142370281
Na                6.8080813032        2.1113763788        1.8800607959
Na                4.0078786117        2.8277887600        1.9886866561
Na                1.2195657620        4.1576289744        2.0359833825
Na                1.6415364202        1.9405233208        3.6535939643
Na                0.0000000000        1.3383246035        1.5265611658


