%mem=14GB
%chk=checkpoint.chk
%nprocshared=16
#P B3LYP/6-311+g(d) force ! ASE formatted method and basis

Gaussian input prepared by ASE

0 2
Na                2.4176961674        0.0000000000        0.4103743822
Na                0.6819072113        0.0571270681        2.4470367315
Na                0.0000000000        1.4497478553        0.0000000000
Na                1.0366625388        2.8550314357        2.2462672169
Na                3.3727927650        2.4133914878        1.0260697258
Na                4.9317193834        0.2145206120        1.8727668801
Na                7.2735364190        1.6802355480        1.0884875746


