%mem=14GB
%chk=checkpoint.chk
%nprocshared=16
#P B3LYP/6-311+g(d) force ! ASE formatted method and basis

Gaussian input prepared by ASE

0 2
Na                2.4766752851        1.8530114514        0.0000000000
Na                2.4634431790        4.5761211475        1.8736901054
Na                4.9413155495        2.9145901101        1.1787269134
Na                4.0272880983        0.0164808690        1.6237489018
Na                2.4738899111        1.9372034882        3.1821425238
Na                0.9478273896        0.0000000000        1.6236427781
Na                0.0000000000        2.8892632438        1.1776106505


