%mem=14GB
%chk=checkpoint.chk
%nprocshared=16
#P B3LYP/6-311+g(d) force ! ASE formatted method and basis

Gaussian input prepared by ASE

0 2
Na                5.4483059172        3.4990944209        0.0000000000
Na                5.4362503596        2.0835115510        2.6417403609
Na                1.0903231527        0.0000000000        1.7670276327
Na                3.4781118235        1.3002759234        0.5022261283
Na                4.5711926384        4.9527223735        2.4670782268
Na                2.5513723516        4.1597244115        0.3912383280
Na                0.0000000000        5.1408904433        1.6289930203


