%mem=14GB
%chk=checkpoint.chk
%nprocshared=16
#P B3LYP/6-311+g(d) force ! ASE formatted method and basis

Gaussian input prepared by ASE

0 2
Na                2.6919855315        2.0077139313        2.7264450110
Na                4.8985371170        0.0000000000        2.3522453506
Na                6.9021500226        2.1831956976        1.8665495221
Na                4.4423126899        3.5829311553        0.8632680957
Na                3.2905487071        0.9438184886        0.0000000000
Na                0.6794650819        0.2890456789        1.3250786029
Na                0.0000000000        3.1235906941        2.0152449054


