%mem=14GB
%chk=checkpoint.chk
%nprocshared=16
#P B3LYP/6-311+g(d) force ! ASE formatted method and basis

Gaussian input prepared by ASE

0 2
Na                2.7367369483        4.0854166202        2.2743820524
Na                5.1559078471        4.1326693139        4.0548574582
Na                4.6973077673        4.0656528378        0.0000000000
Na                6.4105837497        2.4772633348        1.8855195549
Na                4.7213422803        0.0000000000        1.7720175447
Na                2.1488252262        1.1837903025        2.7593397247
Na                0.0000000000        2.9983801120        1.7334451176


