%mem=14GB
%chk=checkpoint.chk
%nprocshared=16
#P B3LYP/6-311+g(d) force ! ASE formatted method and basis

Gaussian input prepared by ASE

0 2
Na                2.8187877038        3.0072150647        2.3433839361
Na                4.4933807169        1.7141288280        0.0000000000
Na                0.0000000000        2.9701515974        1.9963932530
Na                1.8395541155        1.7102173410        0.2361649516
Na                3.1912318882        0.0000000000        2.1310085640
Na                5.2557387328        1.6302321568        2.7196891159
Na                5.2228514463        4.1136259978        1.3239718578


