%nprocshared=14
#P B3LYP/6-311+g(d) force

DPGEN

0 2
Na 9.860670 29.819200 1.427450
Na 10.477200 2.141670 29.348700
Na 9.125740 4.998900 29.995700
Na 6.554980 5.122700 1.921770
Na 5.518840 2.090970 2.112880
Na 2.709620 2.305890 1.091900
Na 0.061921 1.672670 3.069330

