Na7 
1.0
3.0000000000000000e+01 0.0000000000000000e+00 0.0000000000000000e+00 
0.0000000000000000e+00 3.0000000000000000e+01 0.0000000000000000e+00 
0.0000000000000000e+00 0.0000000000000000e+00 3.0000000000000000e+01 
Na 
7 
Cartesian
   9.8606700000   29.8192000000    1.4274500000
  10.4772000000    2.1416700000   29.3487000000
   9.1257400000    4.9989000000   29.9957000000
   6.5549800000    5.1227000000    1.9217700000
   5.5188400000    2.0909700000    2.1128800000
   2.7096200000    2.3058900000    1.0919000000
   0.0619209000    1.6726700000    3.0693300000
