%nprocshared=14
#P B3LYP/6-311+g(d) force

DPGEN

0 2
Na 9.342280 29.968877 1.825850
Na 10.739600 2.303660 29.635000
Na 9.141530 4.777060 29.945400
Na 6.703050 4.776730 2.295180
Na 5.477940 2.235090 2.059630
Na 2.424170 2.174270 0.461984
Na 0.480373 1.916270 2.744650

