Na7 
1.0
3.0000000000000000e+01 0.0000000000000000e+00 0.0000000000000000e+00 
0.0000000000000000e+00 3.0000000000000000e+01 0.0000000000000000e+00 
0.0000000000000000e+00 0.0000000000000000e+00 3.0000000000000000e+01 
Na 
7 
Cartesian
   9.3422800000   29.9688768000    1.8258500000
  10.7396000000    2.3036600000   29.6350000000
   9.1415300000    4.7770600000   29.9454000000
   6.7030500000    4.7767300000    2.2951800000
   5.4779400000    2.2350900000    2.0596300000
   2.4241700000    2.1742700000    0.4619840000
   0.4803730000    1.9162700000    2.7446500000
