%nprocshared=14
#P B3LYP/6-311+g(d) force

DPGEN

0 2
Na 9.871360 29.786900 1.417300
Na 10.529400 2.099650 29.260900
Na 9.142670 5.054620 29.990100
Na 6.466530 5.192430 1.910980
Na 5.535160 2.037720 2.116270
Na 2.726250 2.323240 1.207830
Na 0.037596 1.657360 3.064330

