Na7 
1.0
3.0000000000000000e+01 0.0000000000000000e+00 0.0000000000000000e+00 
0.0000000000000000e+00 3.0000000000000000e+01 0.0000000000000000e+00 
0.0000000000000000e+00 0.0000000000000000e+00 3.0000000000000000e+01 
Na 
7 
Cartesian
   9.8713600000   29.7869000000    1.4173000000
  10.5294000000    2.0996500000   29.2609000000
   9.1426700000    5.0546200000   29.9901000000
   6.4665300000    5.1924300000    1.9109800000
   5.5351600000    2.0377200000    2.1162700000
   2.7262500000    2.3232400000    1.2078300000
   0.0375957000    1.6573600000    3.0643300000
