%nprocshared=14
#P B3LYP/6-311+g(d) force

DPGEN

0 2
Na 15.283200 99.519800 1.460730
Na 12.307400 0.052285 1.695840
Na 8.871320 2.692180 1.859140
Na 6.031240 3.505220 1.823440
Na 3.172240 5.518120 99.923500
Na 99.404000 4.041010 99.683400
Na 99.239600 2.823310 2.521600

