Na7 
1.0
1.0000000000000000e+02 0.0000000000000000e+00 0.0000000000000000e+00 
0.0000000000000000e+00 1.0000000000000000e+02 0.0000000000000000e+00 
0.0000000000000000e+00 0.0000000000000000e+00 1.0000000000000000e+02 
Na 
7 
Cartesian
  15.2832000000   99.5198000000    1.4607300000
  12.3074000000    0.0522849000    1.6958400000
   8.8713200000    2.6921800000    1.8591400000
   6.0312400000    3.5052200000    1.8234400000
   3.1722400000    5.5181200000   99.9235000000
  99.4040000000    4.0410100000   99.6834000000
  99.2396000000    2.8233100000    2.5216000000
