%mem=12GB
%chk=checkpoint.chk
%nprocshared=16
#P B3LYP/6-311+g(d) force ! ASE formatted method and basis

Gaussian input prepared by ASE

0 1
Na                3.0018416763        2.9657543286        1.0949447021
Na                7.3865208746        3.0100086219        0.0000000000
Na                8.1985755601        0.2966501550        0.9828161866
Na                5.4873342729        1.3857398032        1.6593088045
Na                3.0297953963        0.0000000000        0.6467312791
Na                0.0382887418        0.0078299777        0.4066593395
Na                0.0000000000        2.9524207586        0.9928737814


