%mem=12GB
%chk=checkpoint.chk
%nprocshared=16
#P B3LYP/6-311+g(d) force ! ASE formatted method and basis

Gaussian input prepared by ASE

0 1
Na                2.1967527056        2.3401966029        3.0023414134
Na                4.6590276223        0.8244587989        1.3138861729
Na                2.2646338838        1.5736904185        0.0000000000
Na                0.0000000000        0.7071961541        1.5764123597
Na                4.1948812153        3.3368873367        1.7109023290
Na                2.4113066964        0.0000000000        2.2666799014
Na                0.5409003263        3.4401841496        1.3582683371


