%mem=12GB
%chk=checkpoint.chk
%nprocshared=16
#P B3LYP/6-311+g(d) force ! ASE formatted method and basis

Gaussian input prepared by ASE

0 1
Na                5.5652590843        2.1759086265        3.6340018983
Na                4.7400239574        1.5202340268        0.0000000000
Na                6.5859887900        0.0000000000        1.8251055686
Na                7.1510479139        2.8629740437        1.1800863424
Na                4.4413580510        4.0550570401        1.5815068606
Na                2.8914278780        1.6259983372        2.3697726326
Na                0.0000000000        1.7040314373        1.5820575002


