%mem=12GB
%chk=checkpoint.chk
%nprocshared=16
#P B3LYP/6-311+g(d) force ! ASE formatted method and basis

Gaussian input prepared by ASE

0 1
Na                2.9324258391        1.2852384076        0.8655677442
Na                4.4392133476        2.9199020204        2.8891505201
Na                5.5456369529        0.0000000000        0.1231896467
Na                6.6433782959        2.6954894666        0.8652876502
Na                4.0324571813        3.9739870723        0.1172600483
Na                1.0786409880        3.4743722320        0.0000000000
Na                0.0000000000        1.0886803919        1.4575994765


