%mem=12GB
%chk=checkpoint.chk
%nprocshared=16
#P B3LYP/6-311+g(d) force ! ASE formatted method and basis

Gaussian input prepared by ASE

0 1
Na                1.6278864178        1.4189278328        2.7358865522
Na                2.4498963294        4.0315658498        3.9532372993
Na                0.0000000000        3.8845294090        2.2255190199
Na                1.5817193508        2.6388698884        0.0000000000
Na                4.2686872813        0.0000000000        2.6373012983
Na                4.0509946577        2.8428921855        1.7052014325
Na                6.7021839021        4.2422382132        1.8314355458


