%mem=12GB
%chk=checkpoint.chk
%nprocshared=16
#P B3LYP/6-311+g(d) force ! ASE formatted method and basis

Gaussian input prepared by ASE

0 1
Na                2.9224035475        1.4757736130        3.2581103574
Na                1.9057227531        2.9929683776        0.8667605517
Na                0.0000000000        1.4845547761        2.6127884941
Na                1.9026309902        0.0184664171        0.8322038866
Na                4.3781384497        1.5146963383        0.0000000000
Na                5.3937540422        2.9761136565        2.4262378167
Na                5.3992078944        0.0000000000        2.3929760386


