%mem=12GB
%chk=checkpoint.chk
%nprocshared=16
#P B3LYP/6-311+g(d) force ! ASE formatted method and basis

Gaussian input prepared by ASE

0 1
Na                3.9068507004        0.0000000000        0.9077589692
Na                4.5295651129        4.0586188338        1.3256661776
Na                0.0000000000        2.5426801562        0.5349221471
Na                2.8474077409        2.3541735478        0.0000000000
Na                3.9197311250        1.8930128356        2.8875386594
Na                5.8894655220        1.8410371371        0.4769905818
Na                8.7364442818        2.3965152358        0.5487219519


