%mem=12GB
%chk=checkpoint.chk
%nprocshared=16
#P B3LYP/6-311+g(d) force ! ASE formatted method and basis

Gaussian input prepared by ASE

0 1
Na                3.7479693116        0.0000000000        1.7149131073
Na                5.3503668460        3.8807128707        2.1153904873
Na                0.0000000000        2.0723069584        2.0132545346
Na                2.7808670632        2.6856325010        1.7648600943
Na                6.3135617935        1.1959768631        2.0655862101
Na                4.6715841218        2.0876048437        0.0000000000
Na                4.4269194333        1.7928459263        3.8282342061


