%mem=12GB
%chk=checkpoint.chk
%nprocshared=16
#P B3LYP/6-311+g(d) force ! ASE formatted method and basis

Gaussian input prepared by ASE

0 1
Na                0.7053368041        1.6935051341        0.0000000000
Na                1.3079175816        0.0000000000        2.0665932671
Na                7.9327434631        2.4908374491        2.0217854532
Na                5.5225158662        1.2073744845        1.0505690926
Na                2.9793931893        2.1668282835        2.0731952179
Na                0.0000000000        2.2220975889        2.9878583199
Na                1.1494773121        4.0572692415        1.3112118863


