%mem=12GB
%chk=checkpoint.chk
%nprocshared=16
#P B3LYP/6-311+g(d) force ! ASE formatted method and basis

Gaussian input prepared by ASE

0 1
Na                3.2260323767        2.9020612403        0.0000000000
Na                1.8989580455        4.7461010726        1.9499770206
Na                0.2283737140        3.0524021866        0.1349913766
Na                0.0000000000        1.3495052111        2.5976304574
Na                3.4505240148        0.0000000000        0.7181909905
Na                2.9111956389        2.0566207987        2.8407685875
Na                5.5421569332        3.1585696544        1.8968046056


