%mem=12GB
%chk=checkpoint.chk
%nprocshared=16
#P B3LYP/6-311+g(d) force ! ASE formatted method and basis

Gaussian input prepared by ASE

0 1
Na                2.4277586499        2.0121778325        0.0000000000
Na                2.4345350283        0.0000000000        1.6305334204
Na                0.0000000000        1.1367418807        1.7401761571
Na                1.0231510472        3.6282641653        1.6501151321
Na                2.4298075733        2.0712393860        3.3787154259
Na                3.8298288863        3.6300651088        1.6493534018
Na                4.8659986081        1.1462414876        1.7390618624


