%mem=12GB
%chk=checkpoint.chk
%nprocshared=16
#P B3LYP/6-311+g(d) force ! ASE formatted method and basis

Gaussian input prepared by ASE

0 1
Na                1.6931964928        3.4485432429        1.9687858658
Na                3.7190661123        1.8308644297        3.1151961456
Na                4.9964688512        0.4467081380        0.9476887161
Na                2.5597413931        1.6095832507        0.0000000000
Na                0.0000000000        1.4084031296        1.1425823485
Na                2.1606107438        0.0000000000        2.1671450555
Na                4.2680698056        3.4934429751        1.0344379479


