%mem=12GB
%chk=checkpoint.chk
%nprocshared=16
#P B3LYP/6-311+g(d) force ! ASE formatted method and basis

Gaussian input prepared by ASE

0 1
Na                2.1457592578        1.4542085791        0.0000000000
Na                2.2531323106        0.0000000000        2.2209434239
Na                0.3304774942        1.4704753134        3.3495714618
Na                0.0039640091        0.0370904119        0.7859922195
Na                4.5187682307        1.4649607305        1.4804962139
Na                2.2490976622        2.9326967458        2.2090317879
Na                0.0000000000        2.8791171739        0.7708809515


