%mem=12GB
%chk=checkpoint.chk
%nprocshared=16
#P B3LYP/6-311+g(d) force ! ASE formatted method and basis

Gaussian input prepared by ASE

0 1
Na                2.5836275960        1.0764144229        1.4201263757
Na                1.3207460799        1.0416874104        4.1471907457
Na                0.0901751487        0.1851844703        0.0000000000
Na                0.0000000000        2.5145258579        1.8883719044
Na                2.3529040349        3.9942379416        0.7562740743
Na                4.9193870824        2.9050553528        1.8597110352
Na                5.3788202351        0.0000000000        1.2914292682


