%mem=12GB
%chk=checkpoint.chk
%nprocshared=16
#P B3LYP/6-311+g(d) force ! ASE formatted method and basis

Gaussian input prepared by ASE

0 1
Na                4.9659475718        3.2443189545        2.5131424690
Na                5.3027227812        1.6458095161        0.0000000000
Na                4.9546613198        0.2476151526        2.6288289481
Na                2.6433823451        1.7085014809        1.3898879455
Na                0.0000000000        2.3552531271        0.1210555306
Na                0.3932182373        2.7826572699        3.0629153641
Na                0.2419613757        0.0000000000        1.9587608755


