%mem=12GB
%chk=checkpoint.chk
%nprocshared=16
#P B3LYP/6-311+g(d) force ! ASE formatted method and basis

Gaussian input prepared by ASE

0 1
Na                2.0824954982        1.5946065719        3.6131697323
Na                3.6046910646        3.8842768928        2.4132012142
Na                4.1575162445        0.0000000000        2.1400871679
Na                3.6391848097        2.0649500673        0.0261394218
Na                0.6209149786        3.9094971265        2.3811384662
Na                0.6350600847        2.0805908559        0.0000000000
Na                0.0000000000        0.0415887857        2.1034639949


