%nprocshared=14
#P B3LYP/6-311+g(d) force

DPGEN

0 2
Na 9.530760 29.959500 1.669670
Na 10.609700 2.070990 29.577400
Na 9.172810 5.037660 29.879300
Na 6.651800 4.986750 2.256040
Na 5.514270 2.055000 2.075790
Na 2.441260 2.213670 0.685443
Na 0.388346 1.828390 2.823990

