Na7 
1.0
3.0000000000000000e+01 0.0000000000000000e+00 0.0000000000000000e+00 
0.0000000000000000e+00 3.0000000000000000e+01 0.0000000000000000e+00 
0.0000000000000000e+00 0.0000000000000000e+00 3.0000000000000000e+01 
Na 
7 
Cartesian
   9.5307600000   29.9595000000    1.6696700000
  10.6097000000    2.0709900000   29.5774000000
   9.1728100000    5.0376600000   29.8793000000
   6.6518000000    4.9867500000    2.2560400000
   5.5142700000    2.0550000000    2.0757900000
   2.4412600000    2.2136700000    0.6854430000
   0.3883460000    1.8283900000    2.8239900000
