%nprocshared=14
#P B3LYP/6-311+g(d) force

DPGEN

0 2
Na 8.697670 29.689800 29.325900
Na 10.620100 2.261430 29.269400
Na 9.784810 5.579290 29.144800
Na 7.166620 5.395420 1.077720
Na 5.275120 3.291510 2.193070
Na 3.044150 1.334140 3.759220
Na 29.720500 0.600395 4.197530

