Na7 
1.0
3.0000000000000000e+01 0.0000000000000000e+00 0.0000000000000000e+00 
0.0000000000000000e+00 3.0000000000000000e+01 0.0000000000000000e+00 
0.0000000000000000e+00 0.0000000000000000e+00 3.0000000000000000e+01 
Na 
7 
Cartesian
   8.6976700000   29.6898000000   29.3259000000
  10.6201000000    2.2614300000   29.2694000000
   9.7848100000    5.5792900000   29.1448000000
   7.1666200000    5.3954200000    1.0777200000
   5.2751200000    3.2915100000    2.1930700000
   3.0441500000    1.3341400000    3.7592200000
  29.7205000000    0.6003950000    4.1975300000
