%nprocshared=14
#P B3LYP/6-311+g(d) force

DPGEN

0 2
Na 9.291820 0.302159 1.812810
Na 11.072000 2.143900 0.168620
Na 9.131580 4.634150 0.131543
Na 7.029950 4.692990 2.330930
Na 4.865150 2.193280 1.936990
Na 2.465840 2.059650 0.205179
Na 0.452670 2.125820 2.381600

