Na7 
1.0
3.0000000000000000e+01 0.0000000000000000e+00 0.0000000000000000e+00 
0.0000000000000000e+00 3.0000000000000000e+01 0.0000000000000000e+00 
0.0000000000000000e+00 0.0000000000000000e+00 3.0000000000000000e+01 
Na 
7 
Cartesian
   9.2918200000    0.3021590000    1.8128100000
  11.0720000000    2.1439000000    0.1686200000
   9.1315800000    4.6341500000    0.1315430000
   7.0299500000    4.6929900000    2.3309300000
   4.8651500000    2.1932800000    1.9369900000
   2.4658400000    2.0596500000    0.2051790000
   0.4526700000    2.1258200000    2.3816000000
