%nprocshared=14
#P B3LYP/6-311+g(d) force

DPGEN

0 2
Na 9.737470 28.670900 28.079000
Na 9.418190 1.527860 28.872200
Na 8.994260 4.815580 29.868300
Na 7.002080 6.740530 1.231980
Na 4.889330 4.568040 2.554010
Na 2.776880 1.853890 3.130390
Na 1.490800 29.975156 5.231810

