Na7 
1.0
3.0000000000000000e+01 0.0000000000000000e+00 0.0000000000000000e+00 
0.0000000000000000e+00 3.0000000000000000e+01 0.0000000000000000e+00 
0.0000000000000000e+00 0.0000000000000000e+00 3.0000000000000000e+01 
Na 
7 
Cartesian
   9.7374700000   28.6709000000   28.0790000000
   9.4181900000    1.5278600000   28.8722000000
   8.9942600000    4.8155800000   29.8683000000
   7.0020800000    6.7405300000    1.2319800000
   4.8893300000    4.5680400000    2.5540100000
   2.7768800000    1.8538900000    3.1303900000
   1.4908000000   29.9751558000    5.2318100000
