%nprocshared=14
#P B3LYP/6-311+g(d) force

DPGEN

0 2
Na 9.327450 0.305917 1.784110
Na 11.051300 2.055200 0.132527
Na 9.069750 4.719620 0.113280
Na 6.975960 4.698600 2.321800
Na 4.921660 2.191610 1.922800
Na 2.514500 2.085070 0.245307
Na 0.448343 2.095940 2.447850

