Na7 
1.0
3.0000000000000000e+01 0.0000000000000000e+00 0.0000000000000000e+00 
0.0000000000000000e+00 3.0000000000000000e+01 0.0000000000000000e+00 
0.0000000000000000e+00 0.0000000000000000e+00 3.0000000000000000e+01 
Na 
7 
Cartesian
   9.3274500000    0.3059170000    1.7841100000
  11.0513000000    2.0552000000    0.1325270000
   9.0697500000    4.7196200000    0.1132800000
   6.9759600000    4.6986000000    2.3218000000
   4.9216600000    2.1916100000    1.9228000000
   2.5145000000    2.0850700000    0.2453070000
   0.4483430000    2.0959400000    2.4478500000
