%nprocshared=14
#P B3LYP/6-311+g(d) force

DPGEN

0 2
Na 11.289000 1.289850 99.064700
Na 9.882110 3.301930 1.007270
Na 9.667770 0.903553 3.240310
Na 5.658220 1.424450 5.011940
Na 3.450900 2.288400 3.518690
Na 2.619920 3.377170 99.507200
Na 1.741120 5.566620 97.617500

