Na7 
1.0
1.0000000000000000e+02 0.0000000000000000e+00 0.0000000000000000e+00 
0.0000000000000000e+00 1.0000000000000000e+02 0.0000000000000000e+00 
0.0000000000000000e+00 0.0000000000000000e+00 1.0000000000000000e+02 
Na 
7 
Cartesian
  11.2890000000    1.2898500000   99.0647000000
   9.8821100000    3.3019300000    1.0072700000
   9.6677700000    0.9035530000    3.2403100000
   5.6582200000    1.4244500000    5.0119400000
   3.4509000000    2.2884000000    3.5186900000
   2.6199200000    3.3771700000   99.5072000000
   1.7411200000    5.5666200000   97.6175000000
