%nprocshared=14
#P B3LYP/6-311+g(d) force

DPGEN

0 2
Na 9.411440 0.036402 1.963840
Na 11.268100 2.244250 0.866391
Na 9.365110 4.350130 0.397761
Na 7.082600 4.562030 2.340220
Na 4.829630 2.646970 1.640330
Na 2.456960 1.844260 0.064209
Na 99.895098 2.467920 1.694930

