Na7 
1.0
1.0000000000000000e+02 0.0000000000000000e+00 0.0000000000000000e+00 
0.0000000000000000e+00 1.0000000000000000e+02 0.0000000000000000e+00 
0.0000000000000000e+00 0.0000000000000000e+00 1.0000000000000000e+02 
Na 
7 
Cartesian
   9.4114400000    0.0364016000    1.9638400000
  11.2681000000    2.2442500000    0.8663910000
   9.3651100000    4.3501300000    0.3977610000
   7.0826000000    4.5620300000    2.3402200000
   4.8296300000    2.6469700000    1.6403300000
   2.4569600000    1.8442600000    0.0642090000
  99.8950980000    2.4679200000    1.6949300000
